LAMMPS (7 Aug 2019)
  using 1 OpenMP thread(s) per MPI task
# Input written to comply with LAMMPS 2017-08-11 00:00:00

# Atomic Configuration
units           metal
boundary        p p p
box tilt large
atom_style      charge
read_data       super.lmp
  triclinic box = (0 0 0) to (30.8409 30.9399 30.8613) with tilt (-0.0317434 -0.0977723 -0.0884718)
  4 by 5 by 4 MPI processor grid
  reading atoms ...
  1458 atoms
  read_data CPU = 0.0158889 secs
group           lithium type 1
459 atoms in group lithium
group           scandium type 2
135 atoms in group scandium
group           chloride type 3
864 atoms in group chloride
variable        T1 equal 300

# Potential Setup
pair_style  buck/coul/long 12.0
pair_coeff * * 0.0 1.0 0.0
pair_coeff 1 1     360.530000  0.161000   0.000000 # Li Li
pair_coeff 1 3     421.040000  0.344000   0.000000 # Li Cl
pair_coeff 3 3    1227.200000  0.321000  14.530000 # Cl Cl
pair_coeff 2 3   12131.350000  0.250700   0.000000 # Sc Cl

kspace_style pppm 1e-05

# General Setup
timestep        0.001

# Thermodynamic Information Output
thermo_style custom step temp epair emol etotal press lx ly lz fmax cpu cpuremain
thermo          1000

# Intial Atom Velocity
velocity all create ${T1} 80800 dist gaussian rot yes
velocity all create 300 80800 dist gaussian rot yes

# Stage 0: npt_equilibriation
restart         0
fix             int all npt aniso 1.0 1.0 0.1 temp ${T1} ${T1} 0.5
fix             int all npt aniso 1.0 1.0 0.1 temp 300 ${T1} 0.5
fix             int all npt aniso 1.0 1.0 0.1 temp 300 300 0.5
run             50000
PPPM initialization ...
  using 12-bit tables for long-range coulomb (../kspace.cpp:323)
  G vector (1/distance) = 0.271552
  grid = 30 30 30
  stencil order = 5
  estimated absolute RMS force accuracy = 0.000111037
  estimated relative force accuracy = 7.71111e-06
  using double precision MKL FFT
  3d grid and FFT values/proc = 2548 384
Neighbor list info ...
  update every 1 steps, delay 10 steps, check yes
  max neighbors/atom: 2000, page size: 100000
  master list distance cutoff = 14
  ghost atom cutoff = 14
  binsize = 7, bins = 5 5 5
  1 neighbor lists, perpetual/occasional/extra = 1 0 0
  (1) pair buck/coul/long, perpetual
      attributes: half, newton on
      pair build: half/bin/newton/tri
      stencil: half/bin/3d/newton/tri
      bin: standard
Per MPI rank memory allocation (min/avg/max) = 3.45 | 3.524 | 3.713 Mbytes
Step Temp E_pair E_mol TotEng Press Lx Ly Lz Fmax CPU CPULeft 
       0          300   -9859.8291            0   -9803.3294   -715.17441    30.840886    30.939923    30.861307    2.7005434            0            0 
    1000    534.35737   -10115.344            0   -10014.707    217.84084    33.365005    34.641678     33.73332    3.0927731     1.459419    71.511532 
    2000    387.04821   -10154.521            0   -10081.627   -236.86986    33.070344    34.466451    33.555385    2.4773615    2.9908519    71.780445 
    3000    309.84629   -10175.145            0   -10116.791    2064.6068    32.824692    34.394117     33.32874    2.3429311     4.526526    70.915589 
    4000     286.6673   -10182.376            0   -10128.387   -233.20835     32.83684    34.204421    33.387437    2.2594344    6.1168079    70.343291 
    5000    312.69228   -10179.827            0   -10120.937   -1415.8322    32.647452    34.300472    33.516972    2.5171859    7.6158378     68.54254 
    6000    301.56516   -10179.585            0   -10122.791    727.96689    32.644479    34.328671    33.403848    2.5858668     9.088963    66.652396 
    7000     290.3092   -10186.666            0   -10131.992    454.32573    32.722328    34.247114     33.31619    2.3912935    10.523863    64.646593 
    8000    292.94979   -10181.861            0   -10126.689     -899.782    32.798101    34.127982    33.360513    2.2102484    11.938034    62.674684 
    9000    303.17185   -10180.906            0   -10123.809   -100.03024    32.661513    34.264156    33.260899    2.7065278    13.366356    60.891181 
   10000    284.39624   -10186.249            0   -10132.688     607.2726    32.660787    34.183903    33.355286    2.5168518    14.831547    59.326192 
   11000    299.47655   -10187.444            0   -10131.043   -51.188322     32.73681      34.0245    33.465947    2.4488545    16.235857    57.563496 
   12000    316.20252   -10186.084            0   -10126.533   -887.25216    32.731925    34.255895    33.361476    2.8679803    17.706441    56.070402 
   13000    291.97127   -10187.752            0   -10132.765   -118.20304     32.63201    34.129776    33.334731    2.6766028    19.139153    54.472977 
   14000    294.46908    -10188.11            0   -10132.652    1439.8036    32.622967    34.063767    33.245639    2.8462709    20.566821    52.886113 
   15000    306.99405    -10186.09            0   -10128.273   -330.49546    32.554702    34.065114    33.478431    3.3314835    21.973394    51.271255 
   16000    301.64777   -10188.566            0   -10131.756    -1862.129    32.603216    34.177947    33.498828    2.4987649    23.484515    49.904596 
   17000    289.68412     -10189.8            0   -10135.243    362.13492    32.742464    34.205287    33.093236    2.3003779    24.978946    48.488544 
   18000      303.096   -10188.249            0   -10131.167     453.1268    32.710944    34.185178    33.337395    2.6449634    26.368103    46.876629 
   19000    299.59514   -10188.114            0   -10131.691   -995.57414    32.749284    34.102048    33.337768    2.5465321    27.729961    45.243622 
   20000    290.77845   -10190.942            0   -10136.179   -190.64696    32.551446    34.092255    33.459828    2.2828961    29.112241    43.668363 
   21000    300.30391   -10190.717            0    -10134.16    1201.2463    32.833979    33.928911    33.391703    2.7883644    30.532434    42.163839 
   22000    298.59595   -10189.349            0   -10133.114   -360.23346    32.674395    34.119938    33.491607    2.1888326    31.922087    40.628112 
   23000    296.00514   -10191.501            0   -10135.754   -918.51537    32.594211    34.185202    33.562297    2.3396198    33.326073    39.121913 
   24000    302.42207   -10193.003            0   -10136.047    441.58484     32.48983    34.163052    33.599021    2.4984604    34.803084    37.703342 
   25000     308.1041   -10192.289            0   -10134.263     430.5512    32.624692    33.976076    33.450489    2.6557785    36.194902    36.194903 
   26000    296.04843   -10191.306            0   -10135.551   -1507.4497    32.646017    34.241108    33.411059    2.7654115    37.659947    34.763029 
   27000    288.25211   -10190.897            0   -10136.609   -65.532304    32.408255    34.235429    33.502532    2.5230296    39.145003    33.345745 
   28000    300.60659   -10191.746            0   -10135.132    599.62186    32.621136    33.842992    33.484513    3.6026581    40.695165    31.974773 
   29000    300.23187   -10192.778            0   -10136.235   -94.918839    32.700915    33.883341    33.496649    2.7622535    42.225523    30.577104 
   30000    288.90906   -10192.047            0   -10137.636   -884.46801    32.586439    34.032521    33.631368     2.779818    43.734194     29.15613 
   31000    305.93312   -10193.289            0   -10135.672    415.54476    32.678781    33.812228     33.67367    2.4634297    45.247989    27.732639 
   32000    297.47965   -10191.994            0   -10135.969    756.27816    32.740711    33.797982    33.571552    2.0542381    46.738616    26.290472 
   33000    306.45859   -10195.278            0   -10137.562   -1078.4471    32.735812    33.881633    33.451599    2.3076929    48.112637    24.785298 
   34000     307.1917   -10195.194            0    -10137.34   -426.45888    32.864455    33.704338    33.679158    2.9804471    49.540778    23.313308 
   35000    303.77925   -10194.499            0   -10137.287    565.38073    32.674782    33.854642    33.597841    2.4299922    50.904983    21.816422 
   36000    298.38426   -10194.473            0   -10138.278    845.77502    32.706647    33.772259    33.496814    2.4386652    52.374409    20.367826 
   37000    296.65016   -10193.457            0   -10137.588   -1409.4618    32.926505     33.69167    33.421445    2.7619416     53.77497    18.893909 
   38000    291.57978   -10193.645            0   -10138.732   -197.09523    32.648806    33.878829      33.5716    2.4620338    55.228079    17.440446 
   39000    300.82397    -10197.08            0   -10140.425     631.7541    32.566402    33.762585    33.546582    2.3781692    56.754969    16.007812 
   40000    308.00194   -10194.744            0   -10136.738   -133.29877     32.66659    33.651472    33.668141    2.4727552    58.178551    14.544638 
   41000    302.80763   -10195.733            0   -10138.705   -1384.3574    32.843614    33.778332    33.542841    2.2521832     59.58093    13.078741 
   42000    309.63789   -10198.265            0    -10139.95    183.37965    32.697646    33.730422    33.499872    2.7299113    60.961885    11.611788 
   43000    293.53746   -10195.489            0   -10140.207    762.26007    32.834638    33.586662    33.503263    2.6745245    62.306371    10.142898 
   44000    297.01775   -10193.403            0   -10137.465   -357.56086    32.627319    33.652706    33.715977    2.3546264    63.718226    8.6888491 
   45000     291.5502   -10195.575            0   -10140.666   -1002.4888    32.757857    33.652479    33.690819    2.3280018    65.095566    7.2328408 
   46000    297.56101   -10198.066            0   -10142.026    293.39084    32.597064    33.769098    33.462612    2.3431435    66.484621    5.7812715 
   47000    307.06684   -10195.925            0   -10138.095    776.91852    32.477637    33.833725    33.640734    2.0770373     67.86826    4.3320167 
   48000    308.67254    -10198.45            0   -10140.317   -309.12233     32.73296    33.723754    33.605953    2.5963874     69.26557    2.8860655 
   49000     297.2084   -10198.626            0   -10142.652   -1113.5314    32.901961    33.612215    33.495084    2.4392047    70.667463    1.4421931 
   50000    294.77859   -10199.867            0   -10144.351    374.25202    32.696226    33.589734     33.45262    2.5786681    72.060731            0 
Loop time of 72.0607 on 80 procs for 50000 steps with 1458 atoms

Performance: 59.949 ns/day, 0.400 hours/ns, 693.859 timesteps/s
99.2% CPU use with 80 MPI tasks x 1 OpenMP threads

MPI task timing breakdown:
Section |  min time  |  avg time  |  max time  |%varavg| %total
---------------------------------------------------------------
Pair    | 4.6338     | 5.8361     | 6.8726     |  22.2 |  8.10
Kspace  | 35.368     | 36.307     | 37.428     |   9.3 | 50.38
Neigh   | 0.14872    | 0.17768    | 0.20148    |   3.4 |  0.25
Comm    | 24.29      | 24.56      | 24.809     |   2.1 | 34.08
Output  | 0.00266    | 0.0027045  | 0.0040236  |   0.3 |  0.00
Modify  | 3.7777     | 4.4044     | 4.6768     |  15.5 |  6.11
Other   |            | 0.7733     |            |       |  1.07

Nlocal:    18.225 ave 24 max 12 min
Histogram: 3 2 5 7 10 30 13 3 4 3
Nghost:    1803.45 ave 1846 max 1771 min
Histogram: 9 1 19 9 11 10 9 6 2 4
Neighs:    4143.38 ave 5541 max 2746 min
Histogram: 3 2 8 9 20 13 15 4 4 2

Total # of neighbors = 331470
Ave neighs/atom = 227.346
Neighbor list builds = 1008
Dangerous builds = 7

# Stage 1: nvt_equilibriation
unfix int
restart         0
fix             int all nvt temp ${T1} ${T1} 0.5
fix             int all nvt temp 300 ${T1} 0.5
fix             int all nvt temp 300 300 0.5
run             50000
PPPM initialization ...
  using 12-bit tables for long-range coulomb (../kspace.cpp:323)
  G vector (1/distance) = 0.266715
  grid = 30 30 30
  stencil order = 5
  estimated absolute RMS force accuracy = 0.000140524
  estimated relative force accuracy = 9.75886e-06
  using double precision MKL FFT
  3d grid and FFT values/proc = 2548 384
Per MPI rank memory allocation (min/avg/max) = 3.44 | 3.69 | 3.703 Mbytes
Step Temp E_pair E_mol TotEng Press Lx Ly Lz Fmax CPU CPULeft 
   50000    294.77859   -10199.861            0   -10144.344    376.26028    32.696226    33.589734     33.45262    2.5786827            0            0 
   51000    308.55568   -10199.182            0   -10141.071   -536.32259    32.696226    33.589734     33.45262    2.4444973     1.233043    60.419105 
   52000    296.99789   -10197.908            0   -10141.973    683.61996    32.696226    33.589734     33.45262    2.2886965     2.529753    60.714071 
   53000    288.29469   -10198.766            0   -10144.471   -153.94652    32.696226    33.589734     33.45262    2.1117309    3.8185849    59.824497 
   54000    308.59451   -10199.234            0   -10141.115   -252.67071    32.696226    33.589734     33.45262    2.7097647     5.110512    58.770888 
   55000     285.1187   -10198.843            0   -10145.146    -280.3286    32.696226    33.589734     33.45262    2.5293699    6.3641379    57.277241 
   56000    302.32853   -10200.877            0   -10143.939    134.02187    32.696226    33.589734     33.45262    2.5003556    7.7103939    56.542897 
   57000    301.08245   -10199.116            0   -10142.413   -519.78973    32.696226    33.589734     33.45262    2.3573948     9.020581     55.41214 
   58000    295.87842   -10203.151            0   -10147.427    313.85794    32.696226    33.589734     33.45262     2.629558    10.356713    54.372749 
   59000    297.59262   -10200.242            0   -10144.196   -410.12209    32.696226    33.589734     33.45262    2.7470471    11.638171    53.018339 
   60000    296.64834   -10198.711            0   -10142.843    22.541145    32.696226    33.589734     33.45262    2.8223987    12.943685    51.774744 
   61000    300.07703   -10203.765            0    -10147.25   -1149.1493    32.696226    33.589734     33.45262    2.1712873    14.282111    50.636579 
   62000    293.01897    -10200.24            0   -10145.055   -867.04582    32.696226    33.589734     33.45262    2.3120395    15.534189    49.191601 
   63000    298.94482   -10199.872            0   -10143.571     11.98949    32.696226    33.589734     33.45262    2.1666433    16.904877    48.113883 
   64000    308.16595   -10199.814            0   -10141.776    771.05617    32.696226    33.589734     33.45262    2.5181769    18.235358    46.890923 
   65000    293.44056   -10199.554            0    -10144.29   -836.46402    32.696226    33.589734     33.45262    2.1263375    19.458652    45.403524 
   66000    295.51424   -10200.872            0   -10145.217    423.39836    32.696226    33.589734     33.45262    2.7068953    20.666812    43.916977 
   67000    311.25734    -10199.05            0    -10140.43   -825.95228    32.696226    33.589734     33.45262    2.9017607    21.918328    42.547345 
   68000    295.80772   -10200.561            0   -10144.851    131.58952    32.696226    33.589734     33.45262     2.638816    23.186387    41.220245 
   69000    299.43254    -10201.16            0   -10144.767    42.575647    32.696226    33.589734     33.45262    2.0793695    24.404461    39.817807 
   70000    305.49293   -10199.686            0   -10142.152   -1784.6298    32.696226    33.589734     33.45262    2.3772861    25.671294    38.506942 
   71000    301.77363   -10202.682            0   -10145.848   -701.87336    32.696226    33.589734     33.45262    2.5401733    26.928619    37.187142 
   72000     294.1308   -10201.161            0   -10145.767    208.58451    32.696226    33.589734     33.45262    2.4258857    28.188242    35.875946 
   73000    293.35807   -10198.263            0   -10143.014   -75.112234    32.696226    33.589734     33.45262    2.3708805    29.462393    34.586289 
   74000    293.85625   -10200.182            0   -10144.839    76.117329    32.696226    33.589734     33.45262    2.2564468    30.696356    33.254386 
   75000    293.17629   -10201.478            0   -10146.264   -2174.8469    32.696226    33.589734     33.45262    2.2705365    31.968209     31.96821 
   76000    291.76143   -10202.902            0   -10147.954   -787.66493    32.696226    33.589734     33.45262    2.5085117    33.276214    30.716506 
   77000     298.7696   -10200.336            0   -10144.068   -1659.6354    32.696226    33.589734     33.45262    2.5791233    34.558638    29.438841 
   78000    304.57693   -10202.932            0    -10145.57   -501.97384    32.696226    33.589734     33.45262    2.0624764    35.768629    28.103923 
   79000    288.87195   -10202.247            0   -10147.843   -1163.4648    32.696226    33.589734     33.45262      2.40503    36.996688    26.790706 
   80000    301.42577   -10201.693            0   -10144.925   -770.30821    32.696226    33.589734     33.45262    2.2578309    38.273518    25.515679 
   81000    298.14934   -10201.583            0   -10145.432   -702.42774    32.696226    33.589734     33.45262    2.5651252    39.505641    24.213135 
   82000    288.73621   -10202.633            0   -10148.255   -1068.1554    32.696226    33.589734     33.45262    2.0578754    40.740176     22.91635 
   83000    306.55561   -10202.216            0   -10144.482   -350.52358    32.696226    33.589734     33.45262    2.1272469    41.992381    21.632439 
   84000    306.16915   -10203.515            0   -10145.854   -807.29098    32.696226    33.589734     33.45262    2.1229193    43.228896     20.34301 
   85000    300.11817   -10203.983            0   -10147.461   -1257.3277    32.696226    33.589734     33.45262    2.6094171    44.579772    19.105617 
   86000    301.83069    -10202.87            0   -10146.026   -1522.9194    32.696226    33.589734     33.45262     2.364844    45.944924    17.867471 
   87000    309.61571   -10201.984            0   -10143.673   -645.10003    32.696226    33.589734     33.45262    2.6138506    47.402101    16.654793 
   88000    295.91053   -10204.044            0   -10148.315   -505.44282    32.696226    33.589734     33.45262    2.1896104    48.793187    15.408375 
   89000    304.95647   -10203.141            0   -10145.708   -1090.3742    32.696226    33.589734     33.45262     2.775826    50.147982    14.144303 
   90000    304.56007   -10202.896            0   -10145.538    -547.8945    32.696226    33.589734     33.45262    2.5934471    51.508419    12.877105 
   91000    288.30131   -10203.239            0   -10148.942   -397.57459    32.696226    33.589734     33.45262    2.0597316    52.801137    11.590494 
   92000    304.90505   -10202.731            0   -10145.308   -1628.0476    32.696226    33.589734     33.45262    2.2692422    54.058075    10.296776 
   93000    294.49216   -10202.993            0   -10147.531   -916.01806    32.696226    33.589734     33.45262    2.4318373    55.355193    9.0113107 
   94000    288.64085   -10205.871            0   -10151.511   -868.82292    32.696226    33.589734     33.45262    2.5921082    56.567289    7.7137214 
   95000    299.03444   -10205.272            0   -10148.954   -693.35066    32.696226    33.589734     33.45262     2.089951    57.863237    6.4292487 
   96000    297.75945   -10201.879            0   -10145.801   -698.74514    32.696226    33.589734     33.45262    2.9812515    59.084038    5.1377425 
   97000    310.02166   -10204.608            0   -10146.221   -663.29233    32.696226    33.589734     33.45262    2.1302056    60.320338    3.8502344 
   98000    297.11139   -10205.439            0   -10149.483   -9.4256014    32.696226    33.589734     33.45262    2.0250695    61.565251    2.5652188 
   99000    301.57473    -10202.83            0   -10146.034   -1467.6186    32.696226    33.589734     33.45262    2.6608649     62.84794     1.282611 
  100000    302.03239   -10204.018            0   -10147.136   -1203.5936    32.696226    33.589734     33.45262    2.2296388    64.099058            0 
Loop time of 64.0991 on 80 procs for 50000 steps with 1458 atoms

Performance: 67.396 ns/day, 0.356 hours/ns, 780.043 timesteps/s
99.3% CPU use with 80 MPI tasks x 1 OpenMP threads

MPI task timing breakdown:
Section |  min time  |  avg time  |  max time  |%varavg| %total
---------------------------------------------------------------
Pair    | 5.3154     | 6.3285     | 7.8171     |  22.3 |  9.87
Kspace  | 29.259     | 31.072     | 32.53      |  12.7 | 48.48
Neigh   | 0.12093    | 0.14459    | 0.18136    |   3.3 |  0.23
Comm    | 24.971     | 25.742     | 26.922     |   9.2 | 40.16
Output  | 0.0027492  | 0.002781   | 0.0034792  |   0.2 |  0.00
Modify  | 0.45749    | 0.51537    | 0.5765     |   3.2 |  0.80
Other   |            | 0.2938     |            |       |  0.46

Nlocal:    18.225 ave 24 max 13 min
Histogram: 5 7 5 17 13 13 3 7 5 5
Nghost:    1799.35 ave 1830 max 1767 min
Histogram: 2 4 8 14 9 14 13 8 5 3
Neighs:    4144.32 ave 5491 max 2950 min
Histogram: 4 6 7 17 13 13 4 9 4 3

Total # of neighbors = 331546
Ave neighs/atom = 227.398
Neighbor list builds = 821
Dangerous builds = 0

# Stage 2: main_nvt_simulation
unfix int
compute         lithiummsd lithium msd com yes
compute         scandiummsd scandium msd com yes
compute         chloridemsd chloride msd com yes
fix             lithiummsdt lithium ave/time 1 1 1000 c_lithiummsd[4] file super_al_msd_li.txt
fix             scandiummymsdt scandium ave/time 1 1 1000 c_scandiummsd[4] file super_al_msd_sc.txt
fix             chloridemymsdt chloride ave/time 1 1 1000 c_chloridemsd[4] file super_al_msd_cl.txt
dump            atom_info all custom 1000 super_al.lammpstrj element x y z q id type vx vy vz
dump_modify     atom_info append yes
dump_modify     atom_info sort id
dump_modify     atom_info element Li Sc Cl
restart         0
fix             int all nvt temp ${T1} ${T1} 0.5
fix             int all nvt temp 300 ${T1} 0.5
fix             int all nvt temp 300 300 0.5
run             2000000
PPPM initialization ...
  using 12-bit tables for long-range coulomb (../kspace.cpp:323)
  G vector (1/distance) = 0.266715
  grid = 30 30 30
  stencil order = 5
  estimated absolute RMS force accuracy = 0.000140524
  estimated relative force accuracy = 9.75886e-06
  using double precision MKL FFT
  3d grid and FFT values/proc = 2548 384
Per MPI rank memory allocation (min/avg/max) = 5.835 | 6.084 | 6.098 Mbytes
Step Temp E_pair E_mol TotEng Press Lx Ly Lz Fmax CPU CPULeft 
  100000    302.03239   -10204.018            0   -10147.136   -1203.5936    32.696226    33.589734     33.45262    2.2296388            0            0 
  101000    294.73656   -10203.413            0   -10147.904   -1938.7334    32.696226    33.589734     33.45262    2.4695771     1.248426    2495.6035 
  102000    296.60501   -10205.323            0   -10149.463   -1026.3967    32.696226    33.589734     33.45262    2.3303697     2.506016      2503.51 
  103000    307.79116   -10203.353            0   -10145.387   -238.66082    32.696226    33.589734     33.45262    2.2615276     3.735136    2486.3562 
  104000    296.56428    -10202.95            0   -10147.097   -697.56478    32.696226    33.589734     33.45262    3.0244809      5.00509    2497.5404 
  105000    304.29271   -10204.672            0   -10147.364   -673.44841    32.696226    33.589734     33.45262    2.4414683     6.249387    2493.5058 
  106000    299.72878   -10203.986            0   -10147.537   -1213.9134    32.696226    33.589734     33.45262    2.4010935    7.5472651    2508.2078 
  107000    298.49509    -10205.94            0   -10149.724   -1650.5435    32.696226    33.589734     33.45262    3.0453451    8.8569171    2521.6911 
  108000     304.1554    -10203.12            0   -10145.838   -940.49933    32.696226    33.589734     33.45262    2.2564007    10.077692    2509.3456 
  109000    297.86831   -10203.169            0   -10147.071   -614.04067    32.696226    33.589734     33.45262    2.0208202    11.331517    2506.7834 
  110000     288.3155   -10202.687            0   -10148.388   -853.23275    32.696226    33.589734     33.45262    2.2338954    12.575132    2502.4515 
  111000    302.92468   -10205.369            0   -10148.319   -670.71452    32.696226    33.589734     33.45262    2.0848962    13.917683    2516.5703 
  112000    293.75581   -10207.266            0   -10151.942   -128.25493    32.696226    33.589734     33.45262    2.6715058    15.260274    2528.1189 
  113000    305.89916   -10205.926            0   -10148.315   -775.70545    32.696226    33.589734     33.45262    2.1926748    16.526699    2526.0425 
  114000    298.35019   -10204.372            0   -10148.183   -973.70935    32.696226    33.589734     33.45262    2.7683353    17.832293    2529.6383 
  115000    290.95425    -10206.19            0   -10151.394   -569.30763    32.696226    33.589734     33.45262    2.4431724    19.102592    2527.9098 
  116000    303.34737   -10205.329            0   -10148.199   -639.53078    32.696226    33.589734     33.45262    2.8690744    20.397795    2529.3266 
  117000    306.18095   -10205.105            0   -10147.442   -1066.2475    32.696226    33.589734     33.45262    2.4731309    21.695213    2530.6829 
  118000    292.58611   -10206.293            0    -10151.19   -992.56233    32.696226    33.589734     33.45262    2.3232293    23.006585    2533.2807 
  119000    292.47032   -10204.585            0   -10149.504   -575.88039    32.696226    33.589734     33.45262    2.7032844     24.30987    2534.6239 
  120000    295.65428   -10203.595            0   -10147.913    18.784228    32.696226    33.589734     33.45262    2.3354303      25.6156    2535.9444 
  121000    301.91501   -10202.749            0   -10145.889   -535.23137    32.696226    33.589734     33.45262    2.6587722    26.910277    2535.9733 
  122000    290.74599   -10204.034            0   -10149.278   -1264.9495    32.696226    33.589734     33.45262    2.7164009      28.2163    2536.9019 
  123000    307.40674       -10207            0   -10149.105    -1116.498    32.696226    33.589734     33.45262    2.3339868    29.512635    2536.8035 
  124000    315.98735    -10204.56            0   -10145.049   -617.71974    32.696226    33.589734     33.45262    2.5583836     30.76182    2532.7232 
  125000    305.76183   -10205.735            0   -10148.151   -1042.0728    32.696226    33.589734     33.45262    2.3468829    31.997883    2527.8328 
  126000    306.76971   -10208.171            0   -10150.397   -553.35593    32.696226    33.589734     33.45262    1.9851987    33.230478    2522.9602 
  127000    305.02576   -10207.878            0   -10150.431   -1206.2672    32.696226    33.589734     33.45262    2.2099505    34.445985    2517.1085 
  128000    295.86415   -10202.738            0   -10147.018   -169.67379    32.696226    33.589734     33.45262    2.2772324    35.660219    2511.4983 
  129000    296.81917   -10207.536            0   -10151.635    -495.9065    32.696226    33.589734     33.45262    2.4930602    36.866275    2505.6355 
  130000    306.06214   -10207.113            0   -10149.472   -210.80685    32.696226    33.589734     33.45262    3.0363884    38.133215    2504.0811 
  131000    300.23026   -10205.014            0   -10148.471    386.04877    32.696226    33.589734     33.45262    2.4535808    39.329841      2498.08 
  132000    290.86527   -10207.389            0   -10152.609   -522.78386    32.696226    33.589734     33.45262    2.4999778     40.56146    2494.5298 
  133000    306.98831   -10206.762            0   -10148.946    276.57708    32.696226    33.589734     33.45262    2.0912314    41.798095    2491.4198 
  134000    299.89948   -10205.684            0   -10149.203   -659.74624    32.696226    33.589734     33.45262    2.6568271    43.021766    2487.6704 
  135000    288.70709   -10208.151            0   -10153.778    -777.2696    32.696226    33.589734     33.45262    2.5649566    44.211252    2482.1461 
  136000     289.2841   -10205.822            0    -10151.34   -1831.4036    32.696226    33.589734     33.45262    2.3405378    45.540432    2484.4836 
  137000    298.77776   -10205.602            0   -10149.333   -1501.2455    32.696226    33.589734     33.45262    2.5172052    46.894729    2487.9555 
  138000    308.77475     -10207.8            0   -10149.647   -469.75484    32.696226    33.589734     33.45262    2.3325879    48.167736    2486.9763 
  139000    296.69485   -10208.789            0   -10152.912   -492.00642    32.696226    33.589734     33.45262    2.2177134    49.393017    2483.5823 
  140000    299.80992   -10205.304            0    -10148.84   -811.61209    32.696226    33.589734     33.45262    2.8757023    50.592369    2479.0261 
  141000    303.41004   -10207.002            0    -10149.86   -192.50365    32.696226    33.589734     33.45262    2.2421535    51.819599    2475.9657 
  142000    297.43931   -10208.849            0   -10152.831   -1236.8474    32.696226    33.589734     33.45262     2.445908     53.08068    2474.5708 
  143000    295.08417   -10209.296            0   -10153.722   -1374.8342    32.696226    33.589734     33.45262    2.4619743    54.317599    2472.0824 
  144000    295.72576   -10205.765            0   -10150.071   -1382.6745    32.696226    33.589734     33.45262    2.1162659    55.552694    2469.5698 
  145000    298.40073   -10205.234            0   -10149.035   -644.24101    32.696226    33.589734     33.45262    2.3214373    56.780887    2466.8141 
  146000     294.8097   -10207.611            0   -10152.089   -1390.6963    32.696226    33.589734     33.45262    2.3644615    58.014934    2464.3735 
  147000    293.94481   -10207.048            0   -10151.688   -1907.9784    32.696226    33.589734     33.45262    2.4251295    59.279713    2463.2613 
  148000    306.71897   -10206.683            0   -10148.918   -394.79476    32.696226    33.589734     33.45262    3.7891778    60.566717    2463.0465 
  149000    297.13062   -10207.757            0   -10151.798   -1614.9603    32.696226    33.589734     33.45262    2.2855128    61.882798    2463.9457 
  150000    300.49951   -10206.329            0   -10149.735   -1028.6211    32.696226    33.589734     33.45262     2.258581    63.258625    2467.0864 
  151000    308.40652   -10207.317            0   -10149.234   -1309.9247    32.696226    33.589734     33.45262    2.6027541    64.628928    2469.8388 
  152000    296.97267   -10208.051            0   -10152.122   -1341.3892    32.696226    33.589734     33.45262    2.4268475     65.99675    2472.3398 
  153000    306.68879    -10206.09            0   -10148.331   -1276.7348    32.696226    33.589734     33.45262    2.3965631    67.310103    2472.6938 
  154000    304.12844   -10208.853            0   -10151.576   -1554.1474    32.696226    33.589734     33.45262    2.2615715     68.63308    2473.3329 
  155000    302.57975   -10209.267            0   -10152.281   -1430.1842    32.696226    33.589734     33.45262    2.4914207    69.947418    2473.5951 
  156000    297.72258   -10205.117            0   -10149.047   -702.02386    32.696226    33.589734     33.45262    2.2623571    71.178074     2470.896 
  157000    296.32891   -10208.859            0   -10153.051    579.25224    32.696226    33.589734     33.45262    2.4900667    72.432244      2469.05 
  158000    298.85291    -10208.55            0   -10152.266   -1308.5128    32.696226    33.589734     33.45262    2.1879979    73.652143     2466.077 
  159000    301.66362   -10207.117            0   -10150.304   -847.04632    32.696226    33.589734     33.45262    2.7674701    74.924836    2464.9001 
  160000    299.96887   -10207.773            0   -10151.279   -862.43611    32.696226    33.589734     33.45262    2.6387046    76.204846    2463.9567 
  161000    288.42793   -10206.998            0   -10152.678   -1001.5462    32.696226    33.589734     33.45262    2.8666221    77.541815    2464.8128 
  162000    300.55457   -10205.691            0   -10149.087   -794.63563    32.696226    33.589734     33.45262    2.4743419    78.886656    2465.8442 
  163000    295.38757   -10207.788            0   -10152.157   -1390.7589    32.696226    33.589734     33.45262    2.4557355    80.186558    2465.4185 
  164000    295.92887   -10207.527            0   -10151.794   -1178.8701    32.696226    33.589734     33.45262     2.292115    81.395363    2462.2098 
  165000    304.68271   -10206.298            0   -10148.916   -1764.5063    32.696226    33.589734     33.45262     2.328521    82.646045    2460.3092 
  166000    293.48022   -10207.637            0   -10152.365   -1583.3587    32.696226    33.589734     33.45262    3.0855195    83.950943    2460.0171 
  167000    300.72173   -10205.991            0   -10149.356   -1147.4929    32.696226    33.589734     33.45262    2.5055943    85.246236    2459.4176 
  168000    305.01155    -10206.64            0   -10149.196   -789.93445    32.696226    33.589734     33.45262    2.7183947    86.461038    2456.5107 
  169000    296.74042   -10207.175            0   -10151.289   -997.79284    32.696226    33.589734     33.45262    2.5920668    87.695554    2454.2046 
  170000    302.38335   -10207.993            0   -10151.045   -1833.5741    32.696226    33.589734     33.45262    2.5266124     88.95749    2452.6851 
  171000    306.86747   -10204.681            0   -10146.888   -411.56764    32.696226    33.589734     33.45262    2.5621063    90.204194     2450.759 
  172000    293.17492   -10206.323            0   -10151.108   -61.294642    32.696226    33.589734     33.45262    2.5980359    91.457344    2449.0245 
  173000     293.5756   -10206.129            0    -10150.84   -2274.7428    32.696226    33.589734     33.45262    3.4543031    92.726388    2447.7226 
  174000    302.78143   -10204.293            0    -10147.27   -1700.2685    32.696226    33.589734     33.45262    2.7269551    94.020602    2447.0768 
  175000    297.37896   -10206.593            0   -10150.587   -979.43735    32.696226    33.589734     33.45262    2.0061053    95.281337    2445.5543 
  176000    301.46107   -10208.017            0   -10151.242   -1241.9231    32.696226    33.589734     33.45262    2.0424067    96.517376    2443.4136 
  177000    313.42094   -10205.944            0   -10146.917    -1838.303    32.696226    33.589734     33.45262     2.431792    97.753355    2441.2949 
  178000    298.15554   -10206.624            0   -10150.472   -2194.5097    32.696226    33.589734     33.45262    2.8324208    98.974604    2438.8358 
  179000    306.60371   -10208.373            0    -10150.63   -1751.3814    32.696226    33.589734     33.45262    1.8839145    100.22609    2437.1433 
  180000    302.48248   -10206.149            0   -10149.182   -2413.6559    32.696226    33.589734     33.45262    2.5062619    101.51843    2436.4423 
  181000    301.93076   -10206.117            0   -10149.254   -978.28367    32.696226    33.589734     33.45262    2.2939597    102.84983    2436.6521 
  182000    289.41862   -10206.935            0   -10152.428   -1204.0438    32.696226    33.589734     33.45262    2.2709605    104.16515    2436.4484 
  183000    294.45389   -10205.614            0   -10150.159   -1531.1031    32.696226    33.589734     33.45262    2.3284482     105.5146     2437.006 
  184000    300.58691   -10206.843            0   -10150.233   -2338.7554    32.696226    33.589734     33.45262      2.49479    106.88866    2438.0795 
  185000    297.46382       -10208            0   -10151.978   -825.94969    32.696226    33.589734     33.45262    2.5163237    108.27174    2439.2987 
  186000    299.84007   -10206.496            0   -10150.027   -1960.7901    32.696226    33.589734     33.45262    2.2216727    109.69432    2441.3363 
  187000    305.23904   -10206.242            0   -10148.755   -1334.4277    32.696226    33.589734     33.45262    2.6391021    110.90486    2438.6321 
  188000    293.78264   -10207.194            0   -10151.865   -951.81168    32.696226    33.589734     33.45262    2.3717548    112.11981    2436.0577 
  189000    304.34045   -10207.278            0   -10149.961   -1200.5215    32.696226    33.589734     33.45262    2.2548315     113.3864    2434.6227 
  190000    308.19387   -10206.229            0   -10148.186   -941.27697    32.696226    33.589734     33.45262    2.2670994    114.61784    2432.4452 
  191000    293.04688   -10206.973            0   -10151.783   -1427.2709    32.696226    33.589734     33.45262    2.1148289    115.89671    2431.2838 
  192000    299.44908   -10208.325            0   -10151.929   -2150.1512    32.696226    33.589734     33.45262    1.9956712     117.1471    2429.5289 
  193000    307.17464   -10206.055            0   -10148.204   -2162.0155    32.696226    33.589734     33.45262    2.3362748    118.34439    2426.6964 
  194000    297.72629   -10207.063            0   -10150.992   -1227.8858    32.696226    33.589734     33.45262    3.1776004    119.60737    2425.2303 
  195000    303.22931   -10208.416            0   -10151.308   -1581.0881    32.696226    33.589734     33.45262    2.4137699    120.81083    2422.5751 
  196000    316.65954   -10206.281            0   -10146.644   -65.324961    32.696226    33.589734     33.45262    2.5897702    122.03148    2420.2911 
  197000    304.37051    -10208.34            0   -10151.017   -1213.6645    32.696226    33.589734     33.45262    2.7585881    123.30186    2419.0045 
  198000    297.34278   -10207.504            0   -10151.505   -784.71998    32.696226    33.589734     33.45262    2.4612016    124.58036    2417.8761 
  199000    315.67081   -10206.833            0   -10147.382   -1009.7445    32.696226    33.589734     33.45262    2.3185305    125.81062     2415.818 
  200000    293.59859   -10206.363            0   -10151.069   -1217.8229    32.696226    33.589734     33.45262    2.6882774    127.05572    2414.0586 
  201000    306.04844   -10208.568            0   -10150.929   -713.73013    32.696226    33.589734     33.45262    2.1916228    128.30915    2412.4661 
  202000    296.43724   -10207.622            0   -10151.794   -1718.7657    32.696226    33.589734     33.45262    2.2640955    129.52658    2410.2103 
  203000    293.66098   -10208.591            0   -10153.285    -1588.534    32.696226    33.589734     33.45262    2.1213295    130.77818    2408.6039 
  204000    300.71762   -10205.772            0   -10149.138   -1832.9806    32.696226    33.589734     33.45262    2.8637099    131.99469    2406.3648 
  205000    300.07035   -10207.964            0   -10151.451    -1308.788    32.696226    33.589734     33.45262    2.3156858    133.26942    2405.1957 
  206000    302.17357   -10208.322            0   -10151.413   -2264.2388    32.696226    33.589734     33.45262    2.2201921    134.51098     2403.432 
  207000    295.10892   -10204.164            0   -10148.585   -1784.8639    32.696226    33.589734     33.45262    2.3291282    135.76889    2401.9674 
  208000    304.57619   -10209.623            0   -10152.262   -1844.9044    32.696226    33.589734     33.45262    2.9642711    137.03164    2400.5913 
  209000     301.6884    -10207.26            0   -10150.443   -1282.6377    32.696226    33.589734     33.45262     2.624989    138.34147    2400.0341 
  210000    302.90131   -10206.368            0   -10149.322   -2150.7582    32.696226    33.589734     33.45262      2.85674    139.69861    2400.2762 
  211000    301.19388   -10208.488            0   -10151.763   -1688.7274    32.696226    33.589734     33.45262    2.3558904    140.99741    2399.4965 
  212000     299.2195   -10206.305            0   -10149.952   -2336.6841    32.696226    33.589734     33.45262    2.1399509    142.32513    2399.1951 
  213000    310.39016    -10205.79            0   -10147.334    -511.6501    32.696226    33.589734     33.45262     2.744228    143.62615    2398.4297 
  214000    301.52609   -10209.047            0    -10152.26   -3011.1677    32.696226    33.589734     33.45262    2.2849316    144.95985    2398.1954 
  215000    301.15704   -10207.726            0   -10151.008   -2038.2504    32.696226    33.589734     33.45262    2.0626146    146.29859    2398.0247 
  216000    307.09164   -10206.557            0   -10148.722   -281.61335    32.696226    33.589734     33.45262    2.5304777    147.60191    2397.2586 
  217000    294.78925   -10208.808            0    -10153.29   -1031.7974    32.696226    33.589734     33.45262    2.4210334    148.87353    2395.9732 
  218000    301.18054   -10206.997            0   -10150.275   -1120.2966    32.696226    33.589734     33.45262    2.3864389    150.22379    2395.9422 
  219000    300.83092   -10207.435            0   -10150.779   -2155.8518    32.696226    33.589734     33.45262    2.8257957    151.47362    2394.3016 
  220000    299.33521   -10209.579            0   -10153.204   -757.92002    32.696226    33.589734     33.45262    2.7199901     152.6634    2391.7266 
  221000    312.93959    -10208.67            0   -10149.733   -541.11996    32.696226    33.589734     33.45262    3.1237205    153.92603    2390.3058 
  222000    288.55458   -10207.577            0   -10153.233   -1952.2805    32.696226    33.589734     33.45262    2.2118023    155.12746    2387.9457 
  223000    295.93857   -10209.107            0   -10153.372   -971.66181    32.696226    33.589734     33.45262     2.368703     156.3701    2386.2331 
  224000    302.63257   -10207.711            0   -10150.715   -1537.4081    32.696226    33.589734     33.45262    1.9801673    157.61549    2384.5699 
  225000    306.46277   -10207.994            0   -10150.277   -502.47161    32.696226    33.589734     33.45262    2.0759267    158.80773     2382.116 
  226000    298.58872   -10209.955            0   -10153.721   -1539.0193    32.696226    33.589734     33.45262    2.3397104    160.10339    2381.2203 
  227000    296.40664   -10206.178            0   -10150.356   -659.44487    32.696226    33.589734     33.45262    2.4000506    161.35198    2379.6241 
  228000    307.38873   -10208.695            0   -10150.804   -906.49377    32.696226    33.589734     33.45262    3.6634609    162.60589    2378.1112 
  229000    295.21843   -10209.199            0     -10153.6   -829.60218    32.696226    33.589734     33.45262    2.3924442    163.83037    2376.1754 
  230000    291.75354   -10207.888            0   -10152.941   -1357.6247    32.696226    33.589734     33.45262    2.2494545    165.16563     2375.844 
  231000    310.77684   -10208.552            0   -10150.023    -619.5884    32.696226    33.589734     33.45262    2.3734865    166.49825    2375.4598 
  232000    289.12115   -10207.964            0   -10153.514   -1549.6769    32.696226    33.589734     33.45262    2.3396112    167.79837    2374.6012 
  233000    299.45477   -10208.935            0   -10152.538   -669.89393    32.696226    33.589734     33.45262    2.5523034    169.05081    2373.0666 
  234000    301.42835   -10207.057            0   -10150.288   -559.07352    32.696226    33.589734     33.45262     2.167346    170.28044    2371.2186 
  235000    296.40608   -10209.258            0   -10153.436   -1578.1829    32.696226    33.589734     33.45262    2.0725174    171.54772       2369.9 
  236000    313.09104   -10208.339            0   -10149.374   -1609.9989    32.696226    33.589734     33.45262    3.2378019    172.76925     2367.955 
  237000    302.83473   -10208.107            0   -10151.073   -2005.6842    32.696226    33.589734     33.45262    2.5859461    174.01332    2366.3272 
  238000    298.59396   -10208.831            0   -10152.596   -310.14732    32.696226    33.589734     33.45262    2.1969211    175.24487    2364.5359 
  239000    305.91503   -10209.336            0   -10151.723   -1610.8025    32.696226    33.589734     33.45262    1.9609368    176.50767     2363.171 
  240000    306.45535   -10209.669            0   -10151.954   -1176.7655    32.696226    33.589734     33.45262    2.8207333    177.75493    2361.6012 
  241000    291.84364   -10207.326            0   -10152.363   -1710.0571    32.696226    33.589734     33.45262    2.4385142    178.98895    2359.8614 
  242000    297.57494   -10207.772            0   -10151.729    -1517.394    32.696226    33.589734     33.45262    2.2235932    180.25537    2358.5527 
  243000    295.87959   -10208.351            0   -10152.628   -1798.1881    32.696226    33.589734     33.45262    2.3936271    181.57356    2357.9168 
  244000    290.78605   -10209.827            0   -10155.063   -1098.8175    32.696226    33.589734     33.45262    2.4409517     182.8597    2356.8583 
  245000    307.68376     -10208.3            0   -10150.353   -1196.7672    32.696226    33.589734     33.45262    2.1725991     184.1723    2356.1353 
  246000    302.03315   -10209.662            0   -10152.779   -24.222777    32.696226    33.589734     33.45262    2.2523754    185.53136    2355.9941 
  247000    291.61874   -10208.605            0   -10153.684   -551.35745    32.696226    33.589734     33.45262     2.640584    186.85771    2355.4241 
  248000    306.68163   -10207.161            0   -10149.403   -846.48592    32.696226    33.589734     33.45262    2.2080626     188.2135    2355.2122 
  249000    303.91424   -10210.564            0   -10153.328   -2185.5856    32.696226    33.589734     33.45262    2.5717654    189.51111    2354.2622 
  250000    310.10857    -10210.23            0   -10151.827   -1226.5411    32.696226    33.589734     33.45262    2.5886522    190.76742    2352.7982 
  251000    311.61297   -10207.712            0   -10149.026    -982.9497    32.696226    33.589734     33.45262    2.7082828    192.02276     2351.325 
  252000    298.71922   -10208.707            0   -10152.449   -494.78641    32.696226    33.589734     33.45262    2.4357512    193.23121    2349.2847 
  253000    291.61123   -10208.611            0   -10153.692   -1441.8815    32.696226    33.589734     33.45262    2.5014474    194.51066    2348.1123 
  254000    311.21981   -10207.904            0   -10149.292   -785.01907    32.696226    33.589734     33.45262    2.2503397    195.86988    2347.8948 
  255000    306.32332   -10209.903            0   -10152.213   -1355.7945    32.696226    33.589734     33.45262    2.4208119    197.17123    2346.9736 
  256000    302.33532   -10209.746            0   -10152.807   -1255.3787    32.696226    33.589734     33.45262    2.7899275    198.37476    2344.8914 
  257000    308.45388   -10208.668            0   -10150.576    -1168.055    32.696226    33.589734     33.45262    2.9707681    199.61198    2343.2158 
  258000    292.92175   -10206.142            0   -10150.975   -700.07266    32.696226    33.589734     33.45262    2.4531501    200.88009    2341.9059 
  259000     299.3297   -10209.879            0   -10153.506   -849.97389    32.696226    33.589734     33.45262    2.7872853    202.12832    2340.3662 
  260000    292.96352    -10205.84            0   -10150.665   -922.66288    32.696226    33.589734     33.45262    2.9660947    203.34403    2338.4563 
  261000    301.84753   -10206.937            0   -10150.089   -137.20274    32.696226    33.589734     33.45262    2.3011141    204.58109    2336.7989 
  262000    294.59072   -10209.255            0   -10153.774   -1250.3874    32.696226    33.589734     33.45262    2.6642751    205.82004    2335.1681 
  263000     300.8664   -10208.169            0   -10151.506   -2329.0012    32.696226    33.589734     33.45262    2.4268077    207.02331      2333.14 
  264000     297.6012   -10207.244            0   -10151.196   -803.26234    32.696226    33.589734     33.45262    3.0960363      208.225    2331.1043 
  265000    296.37971   -10210.491            0   -10154.673   -1141.2102    32.696226    33.589734     33.45262    2.2106345    209.42218    2329.0285 
  266000    311.69423   -10209.784            0   -10151.082   -942.11149    32.696226    33.589734     33.45262    2.6344143    210.66267    2327.4418 
  267000    296.74374   -10208.087            0     -10152.2   -808.51427    32.696226    33.589734     33.45262    2.3766581    211.93042    2326.1585 
  268000    294.23369   -10210.216            0   -10154.803    -306.1187    32.696226    33.589734     33.45262    1.9546933    213.16065    2324.4661 
  269000    287.04041   -10208.716            0   -10154.657   -705.10642    32.696226    33.589734     33.45262    2.4737425    214.41055    2322.9924 
  270000    299.76696    -10208.03            0   -10151.574    -735.2207    32.696226    33.589734     33.45262    2.5784629    215.66914    2321.6149 
  271000    297.61875   -10209.805            0   -10153.753   -1357.0367    32.696226    33.589734     33.45262    2.0308547    216.88371    2319.7679 
  272000    305.18177   -10212.016            0    -10154.54    -616.8252    32.696226    33.589734     33.45262    2.5409285    218.09836    2317.9291 
  273000    293.76933   -10206.743            0   -10151.416    181.76409    32.696226    33.589734     33.45262    2.6662197    219.33897    2316.3716 
  274000    298.90791   -10210.912            0   -10154.618   -1618.7491    32.696226    33.589734     33.45262    2.4297876    220.60803    2315.1165 
  275000    307.27112   -10211.261            0   -10153.392   -1194.2813    32.696226    33.589734     33.45262    2.2080108    221.90629    2314.1656 
  276000    311.72868   -10209.907            0   -10151.198   -1003.4244    32.696226    33.589734     33.45262    2.6309749     223.2077    2313.2434 
  277000    298.41395    -10210.94            0   -10154.739   -1112.1361    32.696226    33.589734     33.45262    2.3929965    224.54063    2312.6417 
  278000    305.03051   -10209.984            0   -10152.537   -868.59044    32.696226    33.589734     33.45262    2.6351085    225.95692    2312.8849 
  279000    324.29789   -10208.175            0   -10147.099   -1012.6189    32.696226    33.589734     33.45262    2.0453554    227.35529    2312.9273 
  280000    308.37712   -10206.861            0   -10148.784   -1839.3669    32.696226    33.589734     33.45262    2.4528728    228.76306    2313.0487 
  281000    294.37519   -10209.345            0   -10153.905   -1124.2693    32.696226    33.589734     33.45262    2.0586462    230.07174    2312.1574 
  282000     289.3124   -10207.688            0   -10153.201   -1107.7313    32.696226    33.589734     33.45262    2.8839589    231.30897    2310.5479 
  283000    310.86498   -10209.803            0   -10151.258   -675.51347    32.696226    33.589734     33.45262    2.7292811    232.49652    2308.4491 
  284000    295.09782   -10210.295            0   -10154.718   -966.56994    32.696226    33.589734     33.45262    2.3280825    233.71568    2306.6722 
  285000     293.5587   -10209.324            0   -10154.037   -930.94293    32.696226    33.589734     33.45262    2.3578545    234.95244     2305.074 
  286000    302.58061   -10208.913            0   -10151.927   -798.67836    32.696226    33.589734     33.45262    2.7871323    236.17619    2303.3527 
  287000    297.61472    -10209.75            0   -10153.699   -182.48502    32.696226    33.589734     33.45262    2.6619673     237.3738    2301.3834 
  288000    297.44511   -10211.617            0   -10155.599   -1609.7598    32.696226    33.589734     33.45262    2.2748131    238.62866    2299.9741 
  289000    306.61288   -10209.216            0   -10151.471   -926.47244    32.696226    33.589734     33.45262    2.3815454    239.85311     2298.275 
  290000    297.78249   -10210.333            0   -10154.251   -633.19903    32.696226    33.589734     33.45262    2.5696488    241.09015     2296.701 
  291000    301.50489   -10210.433            0    -10153.65   -868.22092    32.696226    33.589734     33.45262    3.5646288    242.33594    2295.2132 
  292000    307.57331   -10209.242            0   -10151.317   -1105.9023    32.696226    33.589734     33.45262    2.7181054    243.56209     2293.543 
  293000    299.75366   -10211.324            0    -10154.87   -1329.1635    32.696226    33.589734     33.45262    2.0879398    244.80448    2292.0295 
  294000    301.03142   -10210.234            0    -10153.54   -1598.1331    32.696226    33.589734     33.45262    2.4403126    246.01898    2290.2592 
  295000    312.46259   -10207.556            0    -10148.71   -1455.9335    32.696226    33.589734     33.45262      2.21698     247.2619    2288.7576 
  296000    297.49076    -10208.98            0   -10152.952   -237.19103    32.696226    33.589734     33.45262    3.0107298    248.52342    2287.4298 
  297000    295.83159   -10209.902            0   -10154.187   -539.10099    32.696226    33.589734     33.45262    2.3114698     249.7778    2286.0374 
  298000    298.78271    -10206.29            0    -10150.02   -992.87855    32.696226    33.589734     33.45262    2.1807137    250.99183    2284.2792 
  299000    294.15793   -10208.483            0   -10153.084   -654.75855    32.696226    33.589734     33.45262    2.3573549    252.21467    2282.6062 
  300000     303.6517   -10211.158            0   -10153.971   -1491.0195    32.696226    33.589734     33.45262    2.1045511    253.48862    2281.3976 
  301000    296.41626   -10208.313            0   -10152.489   -1379.9521    32.696226    33.589734     33.45262    2.3037407    254.78087    2280.3522 
  302000    307.74356   -10208.968            0    -10151.01    -347.9123    32.696226    33.589734     33.45262    2.3820953    255.98151    2278.4889 
  303000    293.92475   -10210.184            0   -10154.829   -809.35988    32.696226    33.589734     33.45262     2.369262    257.31502    2277.8083 
  304000    304.15202   -10209.836            0   -10152.555   -415.43557    32.696226    33.589734     33.45262    2.2434655    258.62018    2276.8718 
  305000    311.39141   -10207.162            0   -10148.517    539.72958    32.696226    33.589734     33.45262    2.1658758    259.95261    2276.1705 
  306000    305.20663   -10209.256            0   -10151.776   -865.53746    32.696226    33.589734     33.45262    2.4350452    261.24735    2275.1347 
  307000     299.0878   -10210.482            0   -10154.154   -1809.5572    32.696226    33.589734     33.45262    2.3948184    262.55563    2274.2137 
  308000    296.97347    -10207.79            0    -10151.86   -982.00023    32.696226    33.589734     33.45262    2.2852261    263.88076    2273.4342 
  309000    316.28087   -10211.388            0   -10151.822   -1160.2693    32.696226    33.589734     33.45262    1.9257322    265.23015    2272.8575 
  310000    300.00415   -10210.585            0   -10154.085   -479.77844    32.696226    33.589734     33.45262    2.6027451    266.54013    2271.9373 
  311000    302.61548    -10209.01            0   -10152.018   -818.39833    32.696226    33.589734     33.45262    3.3119778    267.90695    2271.4954 
  312000    300.67428   -10209.088            0   -10152.462   -1760.4441    32.696226    33.589734     33.45262    2.7562771    269.28504    2271.1399 
  313000    304.24746   -10212.824            0   -10155.524    -1603.161    32.696226    33.589734     33.45262    2.1312231    270.55956    2269.9058 
  314000    303.57589   -10208.625            0   -10151.452    149.86777    32.696226    33.589734     33.45262    2.5754489    271.84916    2268.7972 
  315000    306.38937   -10209.302            0   -10151.599   -1657.1219    32.696226    33.589734     33.45262    2.2997645    273.10016    2267.3664 
  316000    297.16761   -10210.266            0     -10154.3   -1064.1094    32.696226    33.589734     33.45262    2.2158013    274.34411    2265.8791 
  317000    292.00011   -10209.408            0   -10154.415   -750.35908    32.696226    33.589734     33.45262    2.3785055    275.59787    2264.4746 
  318000    303.73176    -10208.19            0   -10150.988   -1628.2312    32.696226    33.589734     33.45262    2.2612511    276.83294    2262.9188 
  319000    305.10327   -10212.378            0   -10154.917   -1134.1797    32.696226    33.589734     33.45262    2.7355873    278.11947    2261.7843 
  320000    293.03448   -10209.404            0   -10154.216   -978.23168    32.696226    33.589734     33.45262    2.2769313     279.3527    2260.2173 
  321000    301.35399   -10208.839            0   -10152.085    -179.7858    32.696226    33.589734     33.45262    2.2815485    280.56822    2258.5107 
  322000    312.07654   -10209.038            0   -10150.264   -364.56384    32.696226    33.589734     33.45262    2.8161894    281.79771    2256.9204 
  323000    300.44639   -10211.297            0   -10154.713   -998.44777    32.696226    33.589734     33.45262    2.1832593    282.99275    2255.0589 
  324000     301.5182   -10210.097            0   -10153.312   -1293.9329    32.696226    33.589734     33.45262    2.6600588    284.20294    2253.3233 
  325000    309.32596    -10209.49            0   -10151.234   -1722.1447    32.696226    33.589734     33.45262    2.2168788    285.45088    2251.8903 
  326000    290.71025   -10208.371            0   -10153.621   -1877.2314    32.696226    33.589734     33.45262    2.3778453    286.69566    2250.4341 
  327000    302.36288   -10210.908            0   -10153.963   -1348.1291    32.696226    33.589734     33.45262    2.7723222    288.02423    2249.6342 
  328000    294.69839   -10209.559            0   -10154.058    15.004165    32.696226    33.589734     33.45262    2.5508747    289.31358    2248.5248 
  329000    303.47052   -10209.419            0   -10152.266   -767.53708    32.696226    33.589734     33.45262    2.1712002    290.60409    2247.4229 
  330000    301.61748   -10211.372            0   -10154.568   -1484.5016    32.696226    33.589734     33.45262    2.1547649    291.84596     2245.945 
  331000    300.48289   -10211.793            0   -10155.202   -1359.6907    32.696226    33.589734     33.45262    2.4313049    293.11172    2244.6521 
  332000    305.55346   -10209.093            0   -10151.547   -889.50697    32.696226    33.589734     33.45262    2.5727887    294.34551    2243.1158 
  333000    302.29657   -10211.652            0    -10154.72   -838.47638    32.696226    33.589734     33.45262    2.4585515    295.57869    2241.5774 
  334000    302.65561   -10210.345            0   -10153.345   -502.85951    32.696226    33.589734     33.45262    2.1464186    296.81276    2240.0484 
  335000    309.19626   -10210.256            0   -10152.025   -2078.2782    32.696226    33.589734     33.45262    2.0314195    298.04982    2238.5444 
  336000    301.23436   -10211.603            0   -10154.871   -372.87191    32.696226    33.589734     33.45262    2.3805451    299.32843    2237.3532 
  337000    301.39837   -10210.332            0   -10153.569    -1258.711    32.696226    33.589734     33.45262    2.1361177    300.62726    2236.3116 
  338000    295.79252   -10206.917            0    -10151.21   -2364.4806    32.696226    33.589734     33.45262    2.5302071    301.88759    2234.9829 
  339000    292.05672   -10209.102            0   -10154.098   -1122.2113    32.696226    33.589734     33.45262    3.4729474    303.18265    2233.9106 
  340000    286.21622   -10207.232            0   -10153.328   -648.69351    32.696226    33.589734     33.45262    2.2150831    304.51427    2233.1046 
  341000    311.12969    -10208.12            0   -10149.525   -1235.6739    32.696226    33.589734     33.45262    2.5432759    305.86764     2232.453 
  342000    300.74283   -10210.377            0   -10153.737    457.09786    32.696226    33.589734     33.45262    2.0484708     307.1743    2231.4563 
  343000    307.84167   -10212.705            0   -10154.729   -551.63279    32.696226    33.589734     33.45262    2.4714102    308.47908    2230.4434 
  344000    315.75389   -10210.148            0   -10150.681     581.6213    32.696226    33.589734     33.45262    2.6699667    309.77872    2229.3911 
  345000    306.30616   -10211.695            0   -10154.008   -552.71115    32.696226    33.589734     33.45262    2.2505138     311.0468    2228.1108 
  346000    296.11704   -10210.165            0   -10154.396   -1175.2525    32.696226    33.589734     33.45262    2.4460686    312.27927    2226.5766 
  347000      298.976   -10208.188            0   -10151.881   -2223.6217    32.696226    33.589734     33.45262    2.4177731    313.50081    2224.9673 
  348000    305.61688   -10207.652            0   -10150.094   -1409.9162    32.696226    33.589734     33.45262    2.6335204    314.73274    2223.4345 
  349000    298.62328   -10211.048            0   -10154.808   -1446.5448    32.696226    33.589734     33.45262    2.9161593    315.97518    2221.9781 
  350000    295.13405   -10209.197            0   -10153.614   -1515.0468    32.696226    33.589734     33.45262    2.4277133    317.19851    2220.3896 
  351000    312.33591   -10209.588            0   -10150.765   -559.76013    32.696226    33.589734     33.45262    2.9038004    318.48044    2219.2123 
  352000    281.61799   -10208.044            0   -10155.007   -438.26183    32.696226    33.589734     33.45262    2.3895754    319.73155    2217.8205 
  353000    304.26725   -10209.596            0   -10152.293    -906.1359    32.696226    33.589734     33.45262    2.4074656    321.06358    2216.9884 
  354000    304.09981   -10209.919            0   -10152.648   -1548.0376    32.696226    33.589734     33.45262    2.0866509    322.34916    2215.8333 
  355000    304.19902   -10213.142            0   -10155.851   -1462.4511    32.696226    33.589734     33.45262    2.1709596    323.68666    2215.0322 
  356000    305.41708   -10209.867            0   -10152.348   -767.69304    32.696226    33.589734     33.45262    2.2596604    324.93126    2213.5942 
  357000    301.98811   -10210.288            0   -10153.414   -1411.4068    32.696226    33.589734     33.45262    2.7669677    326.14404    2211.9419 
  358000    297.03742   -10209.828            0   -10153.887    -987.2415    32.696226    33.589734     33.45262    2.3550558     327.3777    2210.4339 
  359000    296.03991   -10208.783            0   -10153.029   -724.09077    32.696226    33.589734     33.45262    2.4409096    328.63101    2209.0602 
  360000    315.51653   -10210.231            0   -10150.809   -834.33602    32.696226    33.589734     33.45262    2.2274406    329.84584    2207.4299 
  361000    289.11536     -10209.2            0   -10154.751    -35.00479    32.696226    33.589734     33.45262    2.5063316    331.08492    2205.9643 
  362000     303.0229    -10211.33            0   -10154.261   -1559.9253    32.696226    33.589734     33.45262    2.2402131    332.34207    2204.6203 
  363000     310.8821   -10208.303            0   -10149.754   -958.10371    32.696226    33.589734     33.45262    2.3149502    333.60041    2203.2849 
  364000    304.44239    -10210.08            0   -10152.744   -676.71761    32.696226    33.589734     33.45262    2.5030341    334.83379    2201.7858 
  365000    294.13049   -10210.412            0   -10155.017   -1284.0959    32.696226    33.589734     33.45262    2.6590758    336.05082    2200.1818 
  366000    292.61383   -10207.481            0   -10152.372   -904.67032    32.696226    33.589734     33.45262    2.4028523    337.26795    2198.5813 
  367000    298.85551   -10208.423            0   -10152.139   -1503.2484    32.696226    33.589734     33.45262    2.3463813    338.52253    2197.2267 
  368000     306.0268   -10212.742            0   -10155.107   -968.63307    32.696226    33.589734     33.45262    2.5481759    339.78953    2195.9532 
  369000    294.62851   -10209.067            0   -10153.579   -1267.9498    32.696226    33.589734     33.45262    2.5643899    341.08126    2194.8389 
  370000    304.49365   -10207.599            0   -10150.253   -898.03713    32.696226    33.589734     33.45262    2.3090002    342.38946    2193.8287 
  371000    302.52207   -10210.297            0   -10153.322   -1274.4311    32.696226    33.589734     33.45262    2.7964919    343.70242    2192.8468 
  372000    292.70155   -10210.467            0   -10155.342   -956.62658    32.696226    33.589734     33.45262    2.3985004    345.06929    2192.2049 
  373000    298.88447   -10208.105            0   -10151.815   -1292.6729    32.696226    33.589734     33.45262    2.1751159    346.42413    2191.4816 
  374000    297.83852   -10209.957            0   -10153.864   -570.69178    32.696226    33.589734     33.45262    2.4775296    347.75683    2190.6142 
  375000    295.83574   -10210.653            0   -10154.938   -1210.7308    32.696226    33.589734     33.45262    2.2807625    349.04737     2189.479 
  376000    302.34517   -10208.888            0   -10151.946   -2323.3475    32.696226    33.589734     33.45262    2.6438059    350.34167    2188.3661 
  377000    296.68645   -10211.799            0   -10155.924   -739.81689    32.696226    33.589734     33.45262    2.1404635    351.73429    2187.8635 
  378000    304.35957    -10211.88            0   -10154.559   -2092.7952    32.696226    33.589734     33.45262    2.2919438    352.98592    2186.4812 
  379000    302.93046   -10210.331            0   -10153.279   -879.86927    32.696226    33.589734     33.45262    2.8514773    354.21894    2184.9849 
  380000     300.6034   -10211.036            0   -10154.423   -1373.4712    32.696226    33.589734     33.45262    2.0222336    355.48772    2183.7103 
  381000    306.81331   -10211.983            0     -10154.2   -2037.9229    32.696226    33.589734     33.45262    2.6858883    356.73727     2182.318 
  382000    294.81696   -10209.622            0   -10154.099   -1947.2673    32.696226    33.589734     33.45262    2.3875254    357.93411    2180.6057 
  383000    307.51003   -10209.984            0    -10152.07   -509.56034    32.696226    33.589734     33.45262     2.313244    359.14303    2178.9703 
  384000    304.10275   -10210.624            0   -10153.352   -2560.0343    32.696226    33.589734     33.45262    2.2233566    360.36903    2177.4411 
  385000    295.40271   -10211.047            0   -10155.413   -1451.5521    32.696226    33.589734     33.45262    2.8075877    361.62886    2176.1175 
  386000    299.64956   -10208.585            0   -10152.152   -1791.0489    32.696226    33.589734     33.45262    2.3256946      362.854    2174.5866 
  387000    302.65992    -10210.59            0    -10153.59   -898.58902    32.696226    33.589734     33.45262    2.2680623    364.09961    2173.1799 
  388000    298.75059   -10212.358            0   -10156.094    -1752.109    32.696226    33.589734     33.45262    2.3106679      365.314    2171.5888 
  389000    304.99751   -10209.063            0   -10151.623   -151.59877    32.696226    33.589734     33.45262     3.015166    366.52108     2169.957 
  390000    294.81513   -10209.199            0   -10153.676   -1376.4055    32.696226    33.589734     33.45262    2.1373957    367.71929    2168.2758 
  391000    297.28044   -10210.955            0   -10154.968   -2073.8881    32.696226    33.589734     33.45262    2.2507637    368.98819    2167.0131 
  392000    304.24811   -10211.099            0     -10153.8   -942.54021    32.696226    33.589734     33.45262    3.8092501    370.23786    2165.6379 
  393000    305.17809   -10208.988            0   -10151.513   -871.72065    32.696226    33.589734     33.45262     2.406027    371.48462    2164.2466 
  394000    308.38426   -10208.429            0    -10150.35   -764.35587    32.696226    33.589734     33.45262    3.2634901    372.72822    2162.8379 
  395000    301.59359   -10210.679            0   -10153.879   -1772.1598    32.696226    33.589734     33.45262    2.2692128    373.97251    2161.4343 
  396000    302.96097   -10210.461            0   -10153.404   -1320.7588    32.696226    33.589734     33.45262    2.4615461    375.21465    2160.0195 
  397000    302.74274   -10209.494            0   -10152.478   -1745.0547    32.696226    33.589734     33.45262    2.4093787    376.40345    2158.2999 
  398000    298.54996   -10211.429            0   -10155.202    -1846.971    32.696226    33.589734     33.45262    2.0478877    377.60792    2156.6734 
  399000    287.31965   -10208.723            0   -10154.611   -1794.6061    32.696226    33.589734     33.45262    2.6490608     378.8361    2155.1847 
  400000    292.43233   -10206.906            0   -10151.831   -1145.6348    32.696226    33.589734     33.45262    2.3614013    380.07196    2153.7411 
  401000    297.94406    -10211.51            0   -10155.397   -1772.4099    32.696226    33.589734     33.45262    2.4651657    381.43181    2152.9988 
  402000    312.52044    -10213.21            0   -10154.353   -1041.7136    32.696226    33.589734     33.45262    2.2931533    382.74607    2151.9961 
  403000    306.05923   -10210.258            0   -10152.617    -1117.757    32.696226    33.589734     33.45262    2.3099192    384.08838    2151.1484 
  404000     306.6569   -10209.058            0   -10151.305   -637.16124    32.696226    33.589734     33.45262    2.5358345    385.41568    2150.2138 
  405000    293.91229    -10210.37            0   -10155.017   -1066.4778    32.696226    33.589734     33.45262    2.3839756    386.75731    2149.3562 
  406000    304.37759   -10209.828            0   -10152.504   -1399.5261    32.696226    33.589734     33.45262    2.3970391    388.07364    2148.3554 
  407000    308.27981   -10209.434            0   -10151.375   -1178.3861    32.696226    33.589734     33.45262    2.2777354    389.33432    2147.0456 
  408000    292.45465   -10208.866            0   -10153.788   -299.61605    32.696226    33.589734     33.45262    1.9496359     390.6131    2145.8356 
  409000    299.16604   -10212.585            0   -10156.243   -1954.2045    32.696226    33.589734     33.45262    2.2333522    391.86361    2144.4704 
  410000    297.00688   -10211.833            0   -10155.897   -1076.7064    32.696226    33.589734     33.45262    2.7794168      393.127    2143.1762 
  411000    301.09063   -10209.416            0   -10152.711   -1138.5047    32.696226    33.589734     33.45262    2.2068711    394.38147    2141.8338 
  412000    293.25694   -10211.611            0   -10156.382   -2102.0639    32.696226    33.589734     33.45262    2.4311238     395.5981    2140.2872 
  413000    304.03435   -10212.521            0   -10155.262   -2232.8243    32.696226    33.589734     33.45262     2.293183    396.80151    2138.6714 
  414000    302.69549   -10210.873            0   -10153.866    -1791.603    32.696226    33.589734     33.45262    2.7374269     398.0418    2137.2563 
  415000     299.7499   -10210.378            0   -10153.925   -2550.7248    32.696226    33.589734     33.45262    2.0889696     399.2694    2135.7744 
  416000    290.35296   -10212.069            0   -10157.386   -1839.7964    32.696226    33.589734     33.45262    2.6882987    400.45937    2134.0936 
  417000    305.75452   -10210.752            0   -10153.169   -1014.9751    32.696226    33.589734     33.45262    1.9937175    401.71705    2132.7754 
  418000     294.5846   -10209.972            0   -10154.493   -2389.9337    32.696226    33.589734     33.45262    1.9188516    403.00282    2131.6061 
  419000    297.08205   -10213.531            0   -10157.581   -1618.9316    32.696226    33.589734     33.45262    2.3080468    404.24918    2130.2284 
  420000    292.60286   -10211.028            0   -10155.922   -2080.6228    32.696226    33.589734     33.45262    1.9143492    405.45688    2128.6486 
  421000    300.76375   -10209.608            0   -10152.964   -1318.7389    32.696226    33.589734     33.45262    3.2173289    406.69084    2127.2085 
  422000    301.07794   -10212.962            0   -10156.259   -1429.9061    32.696226    33.589734     33.45262    2.6437704    407.95435    2125.9236 
  423000    295.04567    -10211.32            0   -10155.754   -2036.7346    32.696226    33.589734     33.45262    2.8777676     409.2019     2124.556 
  424000    297.83094   -10210.459            0   -10154.368   -653.71793    32.696226    33.589734     33.45262     2.169772    410.44644    2123.1736 
  425000    298.55839    -10211.44            0   -10155.212    -23.73705    32.696226    33.589734     33.45262    2.0377264    411.66286    2121.6471 
  426000    306.38341   -10211.919            0   -10154.217   -2563.6384    32.696226    33.589734     33.45262    2.4970677    412.87093    2120.0795 
  427000    307.62465   -10209.899            0   -10151.963   -1408.0943    32.696226    33.589734     33.45262    3.3504197    414.13386     2118.795 
  428000    307.66982   -10214.338            0   -10156.394   -1051.0739    32.696226    33.589734     33.45262     2.472331    415.47872    2117.9281 
  429000    303.64311   -10210.967            0   -10153.782   -1896.7513    32.696226    33.589734     33.45262    2.4346336    416.77573    2116.8154 
  430000    293.06185   -10208.362            0   -10153.169   -1894.9352    32.696226    33.589734     33.45262    3.2558319    418.00295    2115.3483 
  431000    296.97336   -10210.802            0   -10154.872   -1637.4258    32.696226    33.589734     33.45262    3.6936504    419.26376     2114.052 
  432000    299.34906   -10209.832            0   -10153.455   -2365.0364    32.696226    33.589734     33.45262    2.8486355    420.52477     2112.757 
  433000    292.82513   -10207.107            0   -10151.958   -2027.1985    32.696226    33.589734     33.45262    2.6768365    421.81403    2111.6036 
  434000    303.56298   -10212.597            0   -10155.426   -1432.3879    32.696226    33.589734     33.45262    1.9482843    423.11138    2110.4897 
  435000    300.26996   -10210.653            0   -10154.102   -2201.2474    32.696226    33.589734     33.45262     2.061039    424.45089    2109.5843 
  436000    310.54695   -10207.889            0   -10149.403   -810.83492    32.696226    33.589734     33.45262    2.5706458    425.77965     2108.623 
  437000    307.14084   -10211.324            0   -10153.479   -1409.4732    32.696226    33.589734     33.45262    3.0569627    427.07402    2107.4899 
  438000    301.55376   -10212.328            0   -10155.536   -1597.3175    32.696226    33.589734     33.45262    2.5557602     428.4137    2106.5786 
  439000    299.89168   -10208.719            0    -10152.24   -1927.8621    32.696226    33.589734     33.45262    2.3339892    429.75405    2105.6681 
  440000    305.11728   -10210.492            0   -10153.029   -1172.6307    32.696226    33.589734     33.45262    2.2371328     430.9945    2104.2673 
  441000    293.70948   -10210.138            0   -10154.823    -1933.521    32.696226    33.589734     33.45262    2.1526612    432.23799    2102.8822 
  442000    292.46586   -10209.788            0   -10154.708   -1320.3593    32.696226    33.589734     33.45262    2.5425247    433.48572    2101.5185 
  443000    311.02756   -10210.641            0   -10152.065   -756.78612    32.696226    33.589734     33.45262    2.5588165    434.70089    2099.9982 
  444000    291.07913   -10210.131            0   -10155.311   -2180.5818    32.696226    33.589734     33.45262    2.4955825    435.95466    2098.6655 
  445000    303.21229   -10212.496            0   -10155.392   -1973.8852    32.696226    33.589734     33.45262    2.3183143     437.1788    2097.1911 
  446000    311.06012   -10210.234            0   -10151.651   -1201.3229    32.696226    33.589734     33.45262    2.5083836    438.39683    2095.6889 
  447000    319.35181   -10209.683            0   -10149.539   -645.07413    32.696226    33.589734     33.45262    2.2772484     439.6143    2094.1857 
  448000     299.3752   -10210.997            0   -10154.615   -1500.5007    32.696226    33.589734     33.45262    2.7434576    440.81213    2092.5909 
  449000    301.23996   -10212.388            0   -10155.655   -1813.9421    32.696226    33.589734     33.45262    2.5673571    442.05953    2091.2329 
  450000    305.74334   -10208.903            0   -10151.322   -1862.9274    32.696226    33.589734     33.45262    2.4601886    443.31347    2089.9064 
  451000    299.73626   -10210.808            0   -10154.358   -2306.3753    32.696226    33.589734     33.45262    2.6873025    444.56772    2088.5817 
  452000    310.31698   -10213.738            0   -10155.296   -2046.6193    32.696226    33.589734     33.45262    2.3746234     445.9171    2087.7028 
  453000    292.27896   -10209.894            0   -10154.848   -795.51111    32.696226    33.589734     33.45262    2.1428476    447.29365     2086.948 
  454000    303.04187   -10210.005            0   -10152.933   -529.34494    32.696226    33.589734     33.45262    2.2905666    448.60589    2085.8906 
  455000    286.55534   -10210.898            0    -10156.93   -1503.5663    32.696226    33.589734     33.45262    2.2440209    449.85877    2084.5569 
  456000    298.58327    -10211.49            0   -10155.258   -1648.6801    32.696226    33.589734     33.45262    2.3867818    451.12386    2083.2799 
  457000    304.30127   -10211.575            0   -10154.266   -1682.6023    32.696226    33.589734     33.45262    2.3285442    452.39505     2082.031 
  458000    294.40547    -10210.52            0   -10155.074   -1402.5526    32.696226    33.589734     33.45262    2.1098539    453.67129    2080.8052 
  459000    295.49578   -10213.391            0    -10157.74   -1588.3686    32.696226    33.589734     33.45262      2.22335    454.88944    2079.3136 
  460000    296.90363   -10209.765            0   -10153.848   -2210.1823    32.696226    33.589734     33.45262    2.0465175    456.12384    2077.8975 
  461000    295.95672   -10210.119            0   -10154.381   -480.76335    32.696226    33.589734     33.45262    2.7585436    457.35673    2076.4756 
  462000    293.68819   -10214.047            0   -10158.736   -838.37157    32.696226    33.589734     33.45262     2.522387    458.60885    2075.1417 
  463000    285.84145   -10210.864            0   -10157.031   -2521.9301    32.696226    33.589734     33.45262    2.4670861    459.83775    2073.7036 
  464000    303.26349   -10210.153            0   -10153.039   -503.55529    32.696226    33.589734     33.45262    2.2945602    461.11023    2072.4625 
  465000    290.37796   -10209.446            0   -10154.758   -2091.9088    32.696226    33.589734     33.45262    2.7052189    462.39479    2071.2753 
  466000    292.99044   -10211.998            0   -10156.819   -1736.6516    32.696226    33.589734     33.45262      2.28901    463.72583    2070.2951 
  467000    304.64576   -10210.121            0   -10152.746   -563.26634    32.696226    33.589734     33.45262    2.5879819    465.05144    2069.2888 
  468000    298.82047   -10211.767            0    -10155.49   -1034.3609    32.696226    33.589734     33.45262     2.695778    466.39395    2068.3558 
  469000    297.08072   -10212.201            0   -10156.251   -1278.3498    32.696226    33.589734     33.45262    2.3642708    467.70112    2067.2643 
  470000    312.04005   -10211.114            0   -10152.347   -1328.2686    32.696226    33.589734     33.45262    2.4133935    468.99602    2066.1176 
  471000    299.26009   -10211.762            0   -10155.402   -2202.8482    32.696226    33.589734     33.45262    2.4204493    470.29958    2065.0081 
  472000      299.004   -10211.677            0   -10155.365   -1654.8891    32.696226    33.589734     33.45262    2.1825146    471.54148    2063.6278 
  473000    306.62035   -10211.856            0   -10154.109   -871.60219    32.696226    33.589734     33.45262    2.1445765    472.73418    2062.0336 
  474000    314.63032    -10213.31            0   -10154.055   -939.79468    32.696226    33.589734     33.45262    2.0298392    473.94535    2060.5218 
  475000    291.13612   -10210.902            0   -10156.072   -1239.4473    32.696226    33.589734     33.45262     2.371721    475.18546     2059.137 
  476000    309.00005   -10211.257            0   -10153.062     -742.509    32.696226    33.589734     33.45262    2.2762632    476.46875    2057.9395 
  477000    305.19872   -10210.939            0    -10153.46   -1230.4983    32.696226    33.589734     33.45262    1.9688296    477.76366    2056.7916 
  478000    298.86612   -10211.718            0   -10155.431    -1542.451    32.696226    33.589734     33.45262     2.615136    478.99858    2055.3854 
  479000    309.91131   -10212.038            0   -10153.672   -1416.9254    32.696226    33.589734     33.45262    2.0178735    480.20897    2053.8753 
  480000    296.85017   -10209.061            0   -10153.154   -1526.2023    32.696226    33.589734     33.45262    2.3520008    481.48838     2052.661 
  481000    295.08349   -10212.417            0   -10156.844    -121.3569    32.696226    33.589734     33.45262     2.108987    482.84738    2051.7845 
  482000    310.10504   -10211.217            0   -10152.814   -1479.2829    32.696226    33.589734     33.45262    2.0892389    484.13589     2050.607 
  483000    309.47363   -10211.896            0   -10153.612   -880.28251    32.696226    33.589734     33.45262     2.482213    485.38305    2049.2543 
  484000    298.00555   -10212.657            0   -10156.533   -1967.8476    32.696226    33.589734     33.45262    2.6822775    486.62176    2047.8666 
  485000    299.06101   -10209.535            0   -10153.212   -1850.7075    32.696226    33.589734     33.45262     2.048916    487.87831    2046.5545 
  486000    302.59201    -10210.99            0   -10154.002   -753.74112    32.696226    33.589734     33.45262    2.1644324    489.10861    2045.1329 
  487000    291.10521     -10211.1            0   -10156.275   -1101.0883    32.696226    33.589734     33.45262    2.0790074     490.3542     2043.776 
  488000    303.71073   -10211.372            0   -10154.173   -1012.4395    32.696226    33.589734     33.45262    2.1794743    491.60074    2042.4237 
  489000    300.26164   -10210.995            0   -10154.446    -1268.007    32.696226    33.589734     33.45262    2.6173802    492.81924    2040.9558 
  490000     301.2447    -10212.03            0   -10155.296    -1846.614    32.696226    33.589734     33.45262    2.0947485    494.05174    2039.5469 
  491000    293.31064   -10212.621            0   -10157.382   -1653.1555    32.696226    33.589734     33.45262    2.4140861    495.28463    2038.1406 
  492000    300.46217   -10209.937            0    -10153.35   -1717.3093    32.696226    33.589734     33.45262    3.3854279    496.57581    2036.9742 
  493000    300.43538   -10210.615            0   -10154.034   -1180.5665    32.696226    33.589734     33.45262    2.2316002    497.81163    2035.5809 
  494000    289.05921   -10212.967            0   -10158.528   -919.27572    32.696226    33.589734     33.45262    2.7000993     499.0422    2034.1669 
  495000    305.45009   -10211.482            0   -10153.955   -1993.5859    32.696226    33.589734     33.45262    2.2679583    500.30531    2032.8861 
  496000    297.35481   -10210.892            0   -10154.891   -1064.4552    32.696226    33.589734     33.45262    2.1231419    501.63735    2031.8846 
  497000    297.84711   -10212.288            0   -10156.194   -528.79179    32.696226    33.589734     33.45262    2.3180023    502.93993    2030.7625 
  498000    308.78455   -10210.186            0   -10152.032   -445.29141    32.696226    33.589734     33.45262    2.9369265    504.26915    2029.7467 
  499000    295.24565   -10210.343            0   -10154.739   -1430.7281    32.696226    33.589734     33.45262    2.4680944    505.59121    2028.7006 
  500000    305.16925   -10212.568            0   -10155.095   -2278.0084    32.696226    33.589734     33.45262    2.4061611    506.94272    2027.7709 
  501000    306.75776   -10210.681            0   -10152.909    -1433.966    32.696226    33.589734     33.45262     3.343679    508.25174    2026.6697 
  502000     308.6151   -10209.394            0   -10151.271    16.999864    32.696226    33.589734     33.45262    2.5024845    509.61939    2025.8005 
  503000    293.59101   -10210.769            0   -10155.476   -930.69901    32.696226    33.589734     33.45262    2.7826673    510.89916    2024.5806 
  504000    302.81329   -10209.699            0   -10152.669   -1168.9033    32.696226    33.589734     33.45262    2.5596633    512.24129    2023.6067 
  505000    300.51557   -10209.305            0   -10152.708   -824.31493    32.696226    33.589734     33.45262    2.5736684     513.5612    2022.5435 
  506000    294.42146   -10210.724            0   -10155.275    -1724.844    32.696226    33.589734     33.45262    2.8370332    514.83165    2021.2849 
  507000    300.77469   -10208.641            0   -10151.996   -1985.6196    32.696226    33.589734     33.45262    2.4574967    516.01955     2019.703 
  508000    300.95568   -10211.518            0   -10154.838   -2310.6639    32.696226    33.589734     33.45262    2.3233523    517.30422    2018.5008 
  509000    299.27883   -10211.602            0   -10155.238    -1931.649    32.696226    33.589734     33.45262    2.5648118    518.53003    2017.0691 
  510000    302.02502   -10209.667            0   -10152.786   -1195.0218    32.696226    33.589734     33.45262     2.323001     519.7589    2015.6504 
  511000     294.7226   -10212.733            0   -10157.228   -1439.2255    32.696226    33.589734     33.45262      2.44504    521.03562    2014.4175 
  512000    291.76133    -10209.34            0   -10154.392   -945.93314    32.696226    33.589734     33.45262    2.5392668    522.28095    2013.0635 
  513000    296.28888   -10209.222            0   -10153.421   -1114.0603    32.696226    33.589734     33.45262    2.6871641     523.5274    2011.7143 
  514000    285.94875   -10211.826            0   -10157.973   -1744.0211    32.696226    33.589734     33.45262    2.7709385    524.76132    2010.3175 
  515000    298.11858   -10211.934            0   -10155.789   -1456.1161    32.696226    33.589734     33.45262     2.157813    526.02465    2009.0339 
  516000    301.16531   -10210.935            0   -10154.216   -1395.6626    32.696226    33.589734     33.45262    2.2206716    527.25442    2007.6226 
  517000    306.38326   -10209.644            0   -10151.943   -1117.0982    32.696226    33.589734     33.45262     2.288671    528.53723    2006.4135 
  518000     297.3681   -10210.506            0   -10154.502   -1326.8612    32.696226    33.589734     33.45262    2.8558727    529.79124    2005.0951 
  519000    292.17572   -10210.573            0   -10155.547   -1318.0798    32.696226    33.589734     33.45262    2.2431732    531.03596    2003.7419 
  520000    311.79673    -10209.69            0   -10150.969   -1517.7232    32.696226    33.589734     33.45262    2.5054027    532.24844    2002.2679 
  521000    293.78392   -10208.226            0   -10152.897   -1255.6346    32.696226    33.589734     33.45262    2.6160218    533.49128    2000.9091 
  522000    299.09449   -10211.861            0   -10155.532   -1910.5893    32.696226    33.589734     33.45262    2.4271157    534.69498    1999.4045 
  523000    304.75824   -10209.619            0   -10152.223   -1917.3738    32.696226    33.589734     33.45262    2.3992769    535.95861    1998.1247 
  524000    310.05703   -10211.238            0   -10152.844   -1664.2265    32.696226    33.589734     33.45262      2.25804     537.2176    1996.8277 
  525000     289.6092    -10209.05            0   -10154.508   -2067.7176    32.696226    33.589734     33.45262     2.301998    538.38322    1995.1849 
  526000     296.8086   -10209.322            0   -10153.424   -1764.1636    32.696226    33.589734     33.45262    3.1906926    539.58378    1993.6734 
  527000    298.51987   -10208.634            0   -10152.413   -992.72805    32.696226    33.589734     33.45262    2.1633482    540.85781     1992.434 
  528000    298.98806   -10211.451            0   -10155.142   -1212.2156    32.696226    33.589734     33.45262    2.1127185    542.17372    1991.3483 
  529000    297.99298   -10211.165            0   -10155.043   -749.57922    32.696226    33.589734     33.45262    2.3524599    543.52434    1990.3887 
  530000    298.11294   -10208.255            0   -10152.111   -2241.5255    32.696226    33.589734     33.45262    2.4113663    544.86544    1989.3924 
  531000    296.68377   -10210.768            0   -10154.893   -1169.6786    32.696226    33.589734     33.45262    2.0927339    546.20045    1988.3724 
  532000    294.93247   -10209.713            0   -10154.168   -1615.5312    32.696226    33.589734     33.45262    2.2569171    547.49389       1987.2 
  533000    299.59987   -10208.433            0   -10152.009   -1424.8833    32.696226    33.589734     33.45262    2.5065928    548.81924    1986.1426 
  534000    288.71816   -10209.593            0   -10155.218   -1366.1149    32.696226    33.589734     33.45262    3.3749135    550.17058    1985.1777 
  535000    300.86253    -10209.41            0   -10152.748   -1833.1752    32.696226    33.589734     33.45262    2.3831302    551.46208    1983.9958 
  536000    311.06374   -10210.044            0   -10151.461   -797.77222    32.696226    33.589734     33.45262    2.7962226    552.70408    1982.6357 
  537000     308.2595   -10212.457            0   -10154.402   -2821.5679    32.696226    33.589734     33.45262    2.2631232    553.96098    1981.3295 
  538000    299.35375   -10212.117            0   -10155.739   -2110.0683    32.696226    33.589734     33.45262     2.361298    555.20491    1979.9773 
  539000    307.12149   -10210.065            0   -10152.224   -1805.0625    32.696226    33.589734     33.45262    2.2119409     556.4556    1978.6497 
  540000     304.0246   -10212.237            0    -10154.98   -607.93097    32.696226    33.589734     33.45262    2.6238142    557.66183    1977.1647 
  541000    299.55006    -10211.62            0   -10155.205   -1549.5528    32.696226    33.589734     33.45262    2.4185128    558.86318    1975.6637 
  542000    302.11587   -10209.376            0   -10152.478   -1605.3645    32.696226    33.589734     33.45262    2.3415412    560.06776    1974.1755 
  543000    292.90287    -10210.68            0   -10155.517   -1361.8932    32.696226    33.589734     33.45262    2.5874981    561.30229    1972.7938 
  544000    291.75438   -10211.507            0   -10156.561    -1889.344    32.696226    33.589734     33.45262    2.5115379    562.54154    1971.4294 
  545000    304.79425   -10210.079            0   -10152.677   -2057.6971    32.696226    33.589734     33.45262    3.1742059    563.77056    1970.0297 
  546000    292.93523   -10209.815            0   -10154.646   -1385.1067    32.696226    33.589734     33.45262    2.2635396    565.00892    1968.6634 
  547000    299.00911   -10212.477            0   -10156.164   -838.39929    32.696226    33.589734     33.45262    2.8644187    566.26053    1967.3436 
  548000    305.65425   -10211.585            0   -10154.021   -674.73874    32.696226    33.589734     33.45262    2.8854771    567.48166    1965.9186 
  549000    303.37641   -10209.959            0   -10152.824   -1548.9426    32.696226    33.589734     33.45262    2.6853608    568.71928    1964.5514 
  550000    297.22601   -10212.944            0   -10156.967   -1141.1064    32.696226    33.589734     33.45262    2.2398798    569.93032    1963.0933 
  551000    306.16537   -10212.382            0   -10154.721   -2100.7717    32.696226    33.589734     33.45262    2.5902441    571.11213    1961.5359 
  552000    293.04992   -10209.499            0   -10154.308    -1404.612    32.696226    33.589734     33.45262    2.2920667    572.42579    1960.4317 
  553000    297.11794   -10211.639            0   -10155.682   -1659.5867    32.696226    33.589734     33.45262    2.5252151    573.70967    1959.2248 
  554000    295.10897   -10213.086            0   -10157.508   -1416.7682    32.696226    33.589734     33.45262    2.6421521    575.02912    1958.1388 
  555000    304.71459   -10211.013            0   -10153.625   -2136.1238    32.696226    33.589734     33.45262    2.3895993    576.39031    1957.1935 
  556000    300.48667   -10212.388            0   -10155.797   -1270.8329    32.696226    33.589734     33.45262    2.3754708    577.64633    1955.8902 
  557000    287.08118   -10212.551            0   -10158.484   -1018.9003    32.696226    33.589734     33.45262    2.6652789    578.84951    1954.4087 
  558000    308.16044   -10211.376            0    -10153.34   -1119.4368    32.696226    33.589734     33.45262    2.5959693     580.1109    1953.1245 
  559000    299.68471    -10211.52            0    -10155.08   -1911.5962    32.696226    33.589734     33.45262    2.5292609    581.42249    1952.0088 
  560000    295.86039   -10212.674            0   -10156.954   -2127.0836    32.696226    33.589734     33.45262    2.2328919    582.70177    1950.7842 
  561000     304.8919   -10210.045            0   -10152.624   -1893.3066    32.696226    33.589734     33.45262    3.0383012    583.99213    1949.5963 
  562000    303.80328   -10212.265            0   -10155.049   -1458.9314    32.696226    33.589734     33.45262     2.383067    585.36531    1948.6836 
  563000    300.61929   -10213.211            0   -10156.595   -2400.3239    32.696226    33.589734     33.45262    2.4833471    586.66313    1947.5189 
  564000    297.79404   -10211.156            0   -10155.071   -2155.5469    32.696226    33.589734     33.45262    2.1001591    587.96463    1946.3657 
  565000    298.44625   -10208.864            0   -10152.657   -1721.5485    32.696226    33.589734     33.45262    2.5210257    589.30034    1945.3248 
  566000    304.19674    -10211.11            0    -10153.82   -2123.7629    32.696226    33.589734     33.45262    2.4371555    590.53377    1943.9459 
  567000    288.82776   -10210.963            0   -10156.567   -1216.8662    32.696226    33.589734     33.45262    2.5746355    591.74751    1942.5031 
  568000    296.96813   -10208.508            0   -10152.579   -1255.1209    32.696226    33.589734     33.45262    2.6117003    592.97801    1941.1161 
  569000    292.97252   -10208.792            0   -10153.615   -1838.9726    32.696226    33.589734     33.45262    2.3453726    594.18134     1939.641 
  570000    296.18896   -10211.125            0   -10155.343   -1003.8288    32.696226    33.589734     33.45262    2.2132091    595.37744    1938.1436 
  571000     293.5862   -10210.011            0   -10154.719   -1142.3533    32.696226    33.589734     33.45262    2.7158579    596.61112    1936.7694 
  572000    312.95621   -10211.378            0   -10152.438   -1811.9107    32.696226    33.589734     33.45262    2.8115081    597.86495    1935.4611 
  573000    295.21824   -10212.088            0   -10156.489   -2378.6803    32.696226    33.589734     33.45262    2.4042081    599.09911    1934.0895 
  574000    302.22374   -10211.783            0   -10154.865   -1859.0387    32.696226    33.589734     33.45262     2.166815    600.28566    1932.5652 
  575000    303.81491   -10211.604            0   -10154.386   -2373.4914    32.696226    33.589734     33.45262    2.6036892      601.543    1931.2697 
  576000    302.42165   -10212.038            0   -10155.082   -1093.5969    32.696226    33.589734     33.45262    2.6586815    602.76699    1929.8674 
  577000    297.06201   -10214.462            0   -10158.515   -1281.9555    32.696226    33.589734     33.45262    2.2801316    604.00222    1928.5018 
  578000    301.54345    -10211.62            0    -10154.83   -1149.1734    32.696226    33.589734     33.45262    2.5170863    605.34467    1927.4782 
  579000    304.78531   -10211.641            0    -10154.24   -2091.8454    32.696226    33.589734     33.45262    2.4854056    606.67951    1926.4291 
  580000    294.58217   -10211.868            0   -10156.388   -2916.4465    32.696226    33.589734     33.45262    2.9245172    607.96397    1925.2193 
  581000    286.66679   -10210.429            0    -10156.44   -1667.0462    32.696226    33.589734     33.45262    2.0363236    609.21609     1923.907 
  582000    308.16245   -10211.455            0   -10153.418   -2092.7315    32.696226    33.589734     33.45262    2.2956122    610.45835    1922.5638 
  583000    288.02585   -10210.807            0   -10156.563    -1581.409    32.696226    33.589734     33.45262    2.6467342    611.70249    1921.2271 
  584000    290.90666   -10214.265            0   -10159.478   -2360.7102    32.696226    33.589734     33.45262    2.4983306    612.96155    1919.9374 
  585000    302.47358   -10212.288            0   -10155.323    -1347.176    32.696226    33.589734     33.45262    2.2886016    614.21824    1918.6405 
  586000    301.85814   -10210.694            0   -10153.845   -1604.4427    32.696226    33.589734     33.45262     2.378287    615.43026    1917.2045 
  587000    295.66683   -10213.485            0   -10157.801   -2137.4913    32.696226    33.589734     33.45262    2.1802616    616.69723    1915.9403 
  588000    302.08879    -10212.07            0   -10155.177   -1335.2285    32.696226    33.589734     33.45262    2.7131407    617.88102    1914.4182 
  589000    298.95875   -10210.986            0   -10154.683   -2296.0933    32.696226    33.589734     33.45262    2.6918333    619.14767    1913.1536 
  590000    297.38668   -10211.345            0   -10155.337   -2070.9064    32.696226    33.589734     33.45262    2.4425209    620.44718    1911.9903 
  591000    296.65722   -10212.788            0   -10156.918   -1076.5093    32.696226    33.589734     33.45262    2.2152291     621.7684    1910.8931 
  592000    302.87793   -10210.198            0   -10153.157    -2056.602    32.696226    33.589734     33.45262    2.3289778    623.09445    1909.8098 
  593000    298.09866   -10211.406            0   -10155.264   -1094.0379    32.696226    33.589734     33.45262    1.9341343    624.46503    1908.8617 
  594000    289.62879   -10211.415            0   -10156.869   -1405.0427    32.696226    33.589734     33.45262    2.2565043    625.77776    1907.7354 
  595000    302.01031   -10210.947            0   -10154.069   -2867.3921    32.696226    33.589734     33.45262    2.6176732    627.09287    1906.6157 
  596000    304.45575   -10211.935            0   -10154.596   -2314.9003    32.696226    33.589734     33.45262    2.5828364    628.40136    1905.4751 
  597000    290.77229   -10211.893            0   -10157.131   -3169.9975    32.696226    33.589734     33.45262    2.1290678    629.68306    1904.2528 
  598000    292.94061   -10209.221            0   -10154.051   -1753.2702    32.696226    33.589734     33.45262    2.9145501    630.86301    1902.7234 
  599000    300.81764   -10211.321            0   -10154.667   -1543.5431    32.696226    33.589734     33.45262      2.24647    632.09216    1901.3434 
  600000    296.08045   -10212.017            0   -10156.256   -1587.7197    32.696226    33.589734     33.45262    2.5489393    633.31275    1899.9383 
  601000    284.79413   -10212.488            0   -10158.852   -2611.1625    32.696226    33.589734     33.45262    2.0567874    634.57111    1898.6469 
  602000    297.62105   -10211.087            0   -10155.035   -2558.0704    32.696226    33.589734     33.45262    2.6309397    635.83205    1897.3634 
  603000    302.93926   -10211.145            0   -10154.092   -2219.5757    32.696226    33.589734     33.45262     2.173076    637.12261    1896.1681 
  604000    297.58329   -10210.966            0   -10154.922   -1537.3186    32.696226    33.589734     33.45262    2.2887968    638.42297    1895.0015 
  605000    286.42949   -10210.642            0   -10156.698    -1466.631    32.696226    33.589734     33.45262    2.2588806    639.68072    1893.7083 
  606000    315.48278   -10211.749            0   -10152.334   -1717.7606    32.696226    33.589734     33.45262    2.3271925    640.90074    1892.3038 
  607000    306.69914   -10212.623            0   -10154.862   -2144.0075    32.696226    33.589734     33.45262    2.4402788     642.1427    1890.9646 
  608000    297.52777   -10211.611            0   -10155.577   -1394.5239    32.696226    33.589734     33.45262    2.4261332    643.37432    1889.5954 
  609000    297.22481   -10209.758            0   -10153.781   -2423.5897    32.696226    33.589734     33.45262    2.5001587    644.56891    1888.1184 
  610000    311.94115   -10210.089            0    -10151.34   -1806.7223    32.696226    33.589734     33.45262    2.4005404    645.80238     1886.756 
  611000     307.3536   -10212.531            0   -10154.646   -1320.3805    32.696226    33.589734     33.45262    2.2231967    647.03722    1885.3981 
  612000    303.05434   -10213.728            0   -10156.653   -2512.4226    32.696226    33.589734     33.45262    2.0797131    648.28081    1884.0661 
  613000    298.59457   -10210.748            0   -10154.514   -1917.3046    32.696226    33.589734     33.45262     2.482919    649.53516    1882.7657 
  614000    300.59587    -10211.28            0   -10154.668   -565.93923    32.696226    33.589734     33.45262    2.2274961    650.76769    1881.4023 
  615000    297.44259   -10213.292            0   -10157.275   -1590.4415    32.696226    33.589734     33.45262    2.4650567    652.01203    1880.0735 
  616000    301.95267    -10212.08            0   -10155.213    -1512.489    32.696226    33.589734     33.45262    2.3663239    653.22844    1878.6648 
  617000    292.05395   -10210.021            0   -10155.018    -2054.037    32.696226    33.589734     33.45262    2.3912367    654.46399    1877.3116 
  618000    297.25427   -10211.324            0   -10155.342   -893.48438    32.696226    33.589734     33.45262    2.3759022    655.69987    1875.9599 
  619000    289.91064   -10212.555            0   -10157.955   -910.05604    32.696226    33.589734     33.45262    2.5606499    656.96653    1874.6964 
  620000    306.37747   -10212.732            0   -10155.032   -857.40384    32.696226    33.589734     33.45262    1.7902064    658.25235    1873.4875 
  621000     291.5962   -10209.496            0   -10154.579   -939.80021    32.696226    33.589734     33.45262    2.1379966    659.47386    1872.0957 
  622000    290.61048   -10211.921            0    -10157.19   -1050.4885    32.696226    33.589734     33.45262    2.1874891    660.74116    1870.8342 
  623000    288.77849    -10213.62            0   -10159.234    -1150.345    32.696226    33.589734     33.45262    2.6082482    662.03633    1869.6514 
  624000     303.1622   -10212.323            0   -10155.228   -761.63169    32.696226    33.589734     33.45262    2.4558313    663.37223    1868.5828 
  625000    293.27764   -10209.393            0    -10154.16    -1292.438    32.696226    33.589734     33.45262    2.0592264    664.72301    1867.5551 
  626000    295.57682   -10213.939            0   -10158.272   -954.37204    32.696226    33.589734     33.45262    2.4364053    666.03609    1866.4205 
  627000    295.32218   -10210.872            0   -10155.254   -1340.1595    32.696226    33.589734     33.45262    2.0617457    667.40179    1865.4323 
  628000     302.4822   -10212.164            0   -10155.197   -1289.6263    32.696226    33.589734     33.45262    2.5135629    668.76039    1864.4229 
  629000    289.03734   -10213.668            0   -10159.233   -1396.4204    32.696226    33.589734     33.45262    2.3996515    670.09697    1863.3509 
  630000    290.37495   -10212.088            0   -10157.401   -77.900839    32.696226    33.589734     33.45262    2.7416087    671.30104    1861.9104 
  631000    298.61177   -10211.113            0   -10154.875   -805.99285    32.696226    33.589734     33.45262    2.6957824    672.51646    1860.5022 
  632000    299.92461   -10211.728            0   -10155.243   -2267.4649    32.696226    33.589734     33.45262    2.2919603    673.76058    1859.1739 
  633000    290.11126   -10212.732            0   -10158.095   -997.27072    32.696226    33.589734     33.45262    2.2788463    675.01837    1857.8836 
  634000    302.41319   -10212.981            0   -10156.027   -1483.7241    32.696226    33.589734     33.45262      2.47059    676.24945      1856.52 
  635000    305.03933   -10213.254            0   -10155.806   -1733.8839    32.696226    33.589734     33.45262    2.4726818    677.49518    1855.1971 
  636000    298.11065   -10212.231            0   -10156.087   -1583.7009    32.696226    33.589734     33.45262    2.5653785    678.72327    1853.8263 
  637000    299.98847    -10212.71            0   -10156.213   -533.38584    32.696226    33.589734     33.45262    2.3460409    679.93061    1852.3994 
  638000    308.49821   -10211.679            0   -10153.579   -1312.1574    32.696226    33.589734     33.45262    2.3274967     681.1734    1851.0697 
  639000    301.83756   -10214.346            0     -10157.5   -1219.4889    32.696226    33.589734     33.45262    3.1225599    682.39706    1849.6885 
  640000    303.08422   -10213.934            0   -10156.854   -219.34188    32.696226    33.589734     33.45262    2.4055421    683.60244    1848.2584 
  641000    307.72844   -10211.507            0   -10153.552   -1625.2435    32.696226    33.589734     33.45262    2.6595608     684.8364    1846.9063 
  642000    296.16992   -10210.449            0   -10154.671   -1087.3371    32.696226    33.589734     33.45262    2.9587632    686.09633    1845.6244 
  643000    297.67863   -10213.604            0   -10157.541   -2186.1182    32.696226    33.589734     33.45262    2.5798144    687.31124    1844.2219 
  644000    300.34776   -10212.967            0   -10156.402   -566.07761    32.696226    33.589734     33.45262    2.2092266    688.53916    1842.8548 
  645000    307.84714   -10211.964            0   -10153.987   -1327.9408    32.696226    33.589734     33.45262    1.9447463    689.77516    1841.5098 
  646000    292.23331    -10212.81            0   -10157.773     -2231.93    32.696226    33.589734     33.45262     2.075599    690.97306    1840.0638 
  647000    303.74911   -10212.722            0   -10155.516   -1004.5342    32.696226    33.589734     33.45262    2.1625468      692.241    1838.8047 
  648000    294.61383   -10210.425            0   -10154.939   -678.83302    32.696226    33.589734     33.45262    2.4145462    693.47824    1837.4642 
  649000    299.78261   -10215.214            0   -10158.756   -1590.9938    32.696226    33.589734     33.45262       2.3227     694.7312    1836.1657 
  650000    305.07078   -10212.563            0   -10155.109   -27.088373    32.696226    33.589734     33.45262    2.4323895    695.98657    1834.8737 
  651000    308.76632   -10213.669            0   -10155.519   -1073.0586    32.696226    33.589734     33.45262    2.1187764    697.32993    1833.8132 
  652000    300.72689   -10215.118            0   -10158.481   -1000.3048    32.696226    33.589734     33.45262    2.3544288    698.68527    1832.7831 
  653000    281.11804    -10214.68            0   -10161.737   -1424.5776    32.696226    33.589734     33.45262     1.908061    699.94551     1831.503 
  654000    292.21027   -10212.248            0   -10157.216   -1500.2964    32.696226    33.589734     33.45262    2.4690285    701.22238    1830.2664 
  655000    304.49664   -10212.379            0   -10155.032   -1015.1768    32.696226    33.589734     33.45262    2.9047829    702.54674    1829.1532 
  656000    290.19237   -10213.353            0     -10158.7   -2160.6789    32.696226    33.589734     33.45262    2.2178883    703.89283    1828.0958 
  657000    294.22228   -10212.722            0    -10157.31   -1452.8426    32.696226    33.589734     33.45262     2.386159    705.25302    1827.0738 
  658000    299.55069   -10212.494            0   -10156.079   -918.45016    32.696226    33.589734     33.45262    2.6176595      706.602    1826.0217 
  659000     298.1471   -10213.781            0   -10157.631    -663.1125    32.696226    33.589734     33.45262    2.1978668    707.93217      1824.92 
  660000    290.99279   -10215.304            0   -10160.501   -823.37635    32.696226    33.589734     33.45262      2.25656    709.24612    1823.7757 
  661000    302.55876   -10212.872            0   -10155.891   -293.50553    32.696226    33.589734     33.45262    2.2632822    710.46716    1822.3926 
  662000    294.10963   -10212.199            0   -10156.808   -658.10409    32.696226    33.589734     33.45262    2.3502207    711.70345     1821.049 
  663000    289.48271   -10213.939            0   -10159.421   -844.54057    32.696226    33.589734     33.45262    2.3721946    712.99509    1819.8471 
  664000     310.2477   -10212.996            0   -10154.566   -133.08518    32.696226    33.589734     33.45262    2.2841615    714.20611    1818.4397 
  665000    290.89289   -10212.054            0    -10157.27    -196.5114    32.696226    33.589734     33.45262    2.4487603    715.45231    1817.1222 
  666000    293.11166   -10211.526            0   -10156.323   -1618.8883    32.696226    33.589734     33.45262    2.7011324    716.68023    1815.7588 
  667000    306.24347   -10211.987            0   -10154.312   -363.51002    32.696226    33.589734     33.45262    2.3782354    717.91931    1814.4239 
  668000    300.81065   -10214.259            0   -10157.607   -1180.1597    32.696226    33.589734     33.45262    2.3566121    719.16896    1813.1161 
  669000    297.28764   -10211.869            0    -10155.88   -1360.5437    32.696226    33.589734     33.45262    2.4608991    720.39061    1811.7381 
  670000    313.72164   -10208.927            0   -10149.843   -753.51059    32.696226    33.589734     33.45262    2.6324818    721.64318    1810.4382 
  671000    302.78556   -10210.965            0    -10153.94    -1294.523    32.696226    33.589734     33.45262    2.5768232    722.91304    1809.1817 
  672000    299.11822   -10213.914            0    -10157.58    -1366.886    32.696226    33.589734     33.45262    2.5170234    724.12348    1807.7768 
  673000    305.60658   -10212.451            0   -10154.896   -1523.5053    32.696226    33.589734     33.45262    2.4737704    725.37772    1806.4817 
  674000    306.57775   -10212.085            0   -10154.347   -932.39077    32.696226    33.589734     33.45262    2.8100782    726.58566    1805.0717 
  675000    298.57344   -10212.453            0   -10156.222   -1784.2843    32.696226    33.589734     33.45262    2.6063845    727.82663    1803.7443 
  676000    297.94293   -10212.862            0    -10156.75   -767.68921    32.696226    33.589734     33.45262    1.9574717    729.07726     1802.441 
  677000    301.65794   -10210.434            0   -10153.622   -1460.9444    32.696226    33.589734     33.45262    2.7368201    730.42801    1801.3848 
  678000    297.54692    -10212.92            0   -10156.883     -1773.68    32.696226    33.589734     33.45262    2.7355283    731.72569    1800.1971 
  679000    298.61656   -10213.467            0   -10157.227    -1380.169    32.696226    33.589734     33.45262    2.0035434    732.96777    1798.8726 
  680000    299.16344   -10211.788            0   -10155.445    -793.1541    32.696226    33.589734     33.45262     3.169703     734.2249    1797.5851 
  681000    290.60476   -10213.249            0   -10158.519   -1324.0487    32.696226    33.589734     33.45262    2.6701879    735.49056    1796.3186 
  682000    293.09715   -10213.177            0   -10157.977   -1447.4212    32.696226    33.589734     33.45262    2.3209882     736.7481    1795.0323 
  683000     306.7033   -10212.969            0   -10155.207   -1277.1262    32.696226    33.589734     33.45262    2.5795372    738.01405    1793.7666 
  684000    292.16648   -10214.021            0   -10158.996   -1101.3296    32.696226    33.589734     33.45262    2.5674507    739.27337    1792.4848 
  685000    304.72617   -10214.491            0   -10157.101   -1493.8854    32.696226    33.589734     33.45262     2.367438    740.57977    1791.3169 
  686000    301.89412   -10212.886            0   -10156.029   -1220.7581    32.696226    33.589734     33.45262    2.4645897    741.84348    1790.0455 
  687000     291.0117   -10212.461            0   -10157.654   -1996.5614    32.696226    33.589734     33.45262    3.0471076    743.19041    1788.9745 
  688000    289.23763   -10211.957            0   -10157.484   -1964.0609    32.696226    33.589734     33.45262    2.2837834    744.49422     1787.799 
  689000    306.18544   -10212.028            0   -10154.364    -1691.442    32.696226    33.589734     33.45262    2.2745931     745.7957    1786.6175 
  690000    294.59016   -10213.915            0   -10158.434   -1221.8922    32.696226    33.589734     33.45262    3.2853341     747.0873     1785.412 
  691000    302.84877   -10213.253            0   -10156.217   -1425.3951    32.696226    33.589734     33.45262    2.2026738    748.37391    1784.1943 
  692000    318.03172   -10214.546            0    -10154.65   -1325.5531    32.696226    33.589734     33.45262    2.3018363    749.69811    1783.0658 
  693000    291.16239   -10213.657            0   -10158.822   -654.48136    32.696226    33.589734     33.45262    2.6434241    750.95128     1781.768 
  694000    300.58954   -10212.581            0    -10155.97   -2431.9705    32.696226    33.589734     33.45262    2.7713129    752.17404    1780.3985 
  695000    306.75161   -10213.473            0   -10155.702   -1825.3265    32.696226    33.589734     33.45262    2.5164188    753.47263    1779.2085 
  696000    294.08715   -10212.348            0   -10156.962   -1145.6838    32.696226    33.589734     33.45262    2.8973546    754.72631    1777.9123 
  697000    301.22856   -10211.046            0   -10154.315   -694.46183    32.696226    33.589734     33.45262    2.6403174    755.95189    1776.5503 
  698000     298.8729   -10211.798            0    -10155.51    -836.8919    32.696226    33.589734     33.45262    2.6647215    757.18588    1775.2084 
  699000    296.02027   -10213.177            0   -10157.427   -1298.9482    32.696226    33.589734     33.45262    2.4541555    758.39381    1773.8059 
  700000    312.72047   -10211.805            0    -10152.91   -1169.0853    32.696226    33.589734     33.45262    2.2306147    759.69389    1772.6191 
  701000    299.90487   -10211.977            0   -10155.496    -1374.474    32.696226    33.589734     33.45262    2.1885351    761.00236    1771.4514 
  702000    288.83121   -10210.906            0    -10156.51   -1698.3284    32.696226    33.589734     33.45262    2.1282164    762.32848    1770.3243 
  703000    302.61947   -10212.816            0   -10155.824   -686.37329    32.696226    33.589734     33.45262    2.5112825    763.54606     1768.945 
  704000    310.08986   -10212.765            0   -10154.366   -1155.2453    32.696226    33.589734     33.45262    2.3308065    764.75561    1767.5477 
  705000    297.65419   -10214.402            0   -10158.344   -1948.7224    32.696226    33.589734     33.45262    2.2619797    765.95026    1766.1167 
  706000    293.62737   -10211.619            0    -10156.32   -1743.4629    32.696226    33.589734     33.45262    2.4470544     767.2258    1764.8725 
  707000    293.51537   -10211.103            0   -10155.824   -1006.5067    32.696226    33.589734     33.45262    2.3998824    768.49967    1763.6244 
  708000     296.5115   -10213.467            0   -10157.625   -1956.6222    32.696226    33.589734     33.45262    2.7903713    769.75563    1762.3353 
  709000    297.05954   -10215.318            0   -10159.372   -2090.7889    32.696226    33.589734     33.45262    2.2063919    771.00062    1761.0211 
  710000    301.10661   -10211.742            0   -10155.034   -1680.4427    32.696226    33.589734     33.45262    2.3006144    772.19336    1759.5882 
  711000    304.83663   -10213.326            0   -10155.916   -1392.2434    32.696226    33.589734     33.45262    2.0432446    773.44222    1758.2835 
  712000    298.60492   -10215.625            0   -10159.388   -1588.5686    32.696226    33.589734     33.45262     2.807007    774.65692    1756.9016 
  713000     299.1695   -10212.448            0   -10156.105   -878.20375    32.696226    33.589734     33.45262    2.5262939    775.88337    1755.5469 
  714000    300.41405    -10213.37            0   -10156.793    -1231.701    32.696226    33.589734     33.45262    3.0374011    777.17636    1754.3427 
  715000    288.64548   -10214.134            0   -10159.773   -1538.9173    32.696226    33.589734     33.45262    2.4124783    778.41575    1753.0176 
  716000    293.70338   -10212.046            0   -10156.733   -1794.6979    32.696226    33.589734     33.45262    2.0185354    779.64899    1751.6789 
  717000    306.47253   -10213.364            0   -10155.645   -691.01763    32.696226    33.589734     33.45262    2.6391372    780.92435     1750.435 
  718000    282.93028   -10212.501            0   -10159.216   -1203.1152    32.696226    33.589734     33.45262    2.2874786    782.19943    1749.1903 
  719000     298.8101   -10212.347            0   -10156.071   -951.53733    32.696226    33.589734     33.45262     2.573632    783.49962    1748.0016 
  720000     293.6263   -10211.262            0   -10155.963   -885.68773    32.696226    33.589734     33.45262    2.8176652    784.84638    1746.9161 
  721000    287.70883   -10213.464            0   -10159.279   -1585.3485    32.696226    33.589734     33.45262    2.5118207     786.1806     1745.802 
  722000    303.11676   -10213.091            0   -10156.004   -1177.5096    32.696226    33.589734     33.45262    2.4319295    787.46755    1744.5825 
  723000    300.22858   -10211.741            0   -10155.198   -1622.2391    32.696226    33.589734     33.45262    2.0751697    788.76204    1743.3793 
  724000    287.95577   -10212.895            0   -10158.664   -1333.2377    32.696226    33.589734     33.45262    3.1165971    790.08277    1742.2338 
  725000    306.06653   -10214.905            0   -10157.263   -2253.6395    32.696226    33.589734     33.45262    2.8401293    791.32438    1740.9136 
  726000    292.51643   -10211.745            0   -10156.655   -71.975462    32.696226    33.589734     33.45262    2.1049076    792.66934    1739.8206 
  727000    305.02609   -10211.048            0   -10153.602   -1365.5041    32.696226    33.589734     33.45262    2.3780882    794.00225    1738.7003 
  728000    297.82365    -10211.96            0   -10155.871   -2606.8976    32.696226    33.589734     33.45262    2.0251769    795.25906    1737.4131 
  729000    295.42294    -10212.73            0   -10157.093   -1025.2153    32.696226    33.589734     33.45262    2.0907241    796.51723     1736.129 
  730000    307.96436   -10211.707            0   -10153.707   -1808.0946    32.696226    33.589734     33.45262    2.3875108    797.80455    1734.9083 
  731000    308.52762   -10214.257            0   -10156.151   -738.36785    32.696226    33.589734     33.45262    2.3358406    799.00006    1733.4882 
  732000    306.90871   -10215.682            0   -10157.881    -1129.169    32.696226    33.589734     33.45262    2.2057619    800.24651    1732.1791 
  733000    307.27808   -10212.389            0   -10154.519   -2322.5395    32.696226    33.589734     33.45262    2.4806557    801.51899    1730.9265 
  734000    296.07408   -10212.293            0   -10156.532   -1085.1588    32.696226    33.589734     33.45262    1.9896251    802.75399     1729.593 
  735000    297.14124   -10212.475            0   -10156.514   -2113.7705    32.696226    33.589734     33.45262     2.222304    803.98358    1728.2482 
  736000    303.06537   -10213.376            0   -10156.299    -501.0494    32.696226    33.589734     33.45262    2.2543183    805.22672    1726.9328 
  737000    292.73256   -10213.673            0   -10158.542   -1047.6785    32.696226    33.589734     33.45262    2.4001686    806.40709    1725.4833 
  738000     303.1153   -10213.027            0    -10155.94   -1228.0435    32.696226    33.589734     33.45262    2.6740776    807.59727    1724.0556 
  739000    303.96557   -10212.681            0   -10155.434   -1877.5104    32.696226    33.589734     33.45262    2.0090672    808.84784    1722.7573 
  740000    287.07604   -10211.919            0   -10157.853   -2390.2768    32.696226    33.589734     33.45262    2.3091654    810.09098    1721.4433 
  741000    308.13824    -10210.76            0   -10152.728   -657.93302    32.696226    33.589734     33.45262    2.0455099    811.29228    1720.0409 
  742000     296.4565   -10212.151            0   -10156.319   -2784.1176    32.696226    33.589734     33.45262      2.14958     812.5173    1718.6892 
  743000    289.86945   -10212.342            0    -10157.75   -792.82298    32.696226    33.589734     33.45262    2.2671337    813.74948    1717.3531 
  744000    306.21588   -10211.373            0   -10153.703   -984.56876    32.696226    33.589734     33.45262    2.3258299    814.99378    1716.0428 
  745000    290.16836   -10211.952            0   -10157.304   -2365.7152    32.696226    33.589734     33.45262    2.1013892     816.2371    1714.7307 
  746000    295.67362   -10212.728            0   -10157.043   -1084.6355    32.696226    33.589734     33.45262    2.3224324    817.44683    1713.3483 
  747000    305.81055   -10211.945            0   -10154.351   -1525.8061    32.696226    33.589734     33.45262    3.1678905    818.70575    1712.0694 
  748000    303.68398   -10213.979            0   -10156.785   -1430.7722    32.696226    33.589734     33.45262    2.4694024    819.96464    1710.7904 
  749000    295.95857   -10213.749            0    -10158.01   -2010.2431    32.696226    33.589734     33.45262    2.3494543    821.28072    1709.6306 
  750000    304.14057   -10212.412            0   -10155.132   -1890.8012    32.696226    33.589734     33.45262    2.9279609    822.55492    1708.3833 
  751000     296.1825   -10212.021            0   -10156.241   -1350.6792    32.696226    33.589734     33.45262    2.9676445    823.89245    1707.2671 
  752000    298.89666    -10213.29            0   -10156.998   -1823.7222    32.696226    33.589734     33.45262    2.5167744    825.25316    1706.1982 
  753000    290.07823   -10215.053            0   -10160.422   -1695.6969    32.696226    33.589734     33.45262    2.3919072    826.62754    1705.1567 
  754000    304.61281   -10214.221            0   -10156.853   -1669.5307    32.696226    33.589734     33.45262    3.1873055    827.95531    1704.0181 
  755000    303.11869   -10213.458            0   -10156.371   -1959.6821    32.696226    33.589734     33.45262    2.1502845    829.24206    1702.7948 
  756000    293.09644   -10216.096            0   -10160.897   -3113.7966    32.696226    33.589734     33.45262    2.3058419    830.53956    1701.5932 
  757000    294.16478   -10213.912            0   -10158.511   -2110.8208    32.696226    33.589734     33.45262    2.2580919    831.80541    1700.3267 
  758000    302.38142    -10212.61            0   -10155.662   -678.34339    32.696226    33.589734     33.45262    2.7155468    833.04931    1699.0155 
  759000    295.49958   -10212.485            0   -10156.833   -1174.8664    32.696226    33.589734     33.45262    2.1419863    834.25266    1697.6219 
  760000    294.78965   -10214.596            0   -10159.078   -319.94891    32.696226    33.589734     33.45262    2.3282796    835.47454    1696.2665 
  761000    309.95729   -10213.994            0   -10155.619   -1514.9052    32.696226    33.589734     33.45262    2.3789044     836.6877    1694.8938 
  762000    292.46342   -10211.842            0   -10156.762    -1276.189    32.696226    33.589734     33.45262    2.2946406    837.94286    1693.6066 
  763000    290.03191   -10215.206            0   -10160.584   -1581.4492    32.696226    33.589734     33.45262    1.9701486    839.21747    1692.3586 
  764000    307.62438   -10215.089            0   -10157.153   -1337.5413    32.696226    33.589734     33.45262     2.462365    840.41427     1690.954 
  765000     299.7295   -10212.397            0   -10155.949   -1637.5826    32.696226    33.589734     33.45262     1.977141    841.64749    1689.6232 
  766000    293.04972   -10213.211            0    -10158.02   -2051.9596    32.696226    33.589734     33.45262    2.8007494    842.91517    1688.3616 
  767000    300.53597   -10214.412            0   -10157.812   -2123.7187    32.696226    33.589734     33.45262    2.4908146    844.11588    1686.9662 
  768000     296.5839   -10210.582            0   -10154.726   -2800.2743    32.696226    33.589734     33.45262    2.9146169    845.32501    1685.5882 
  769000    299.00541   -10214.256            0   -10157.944   -1754.6069    32.696226    33.589734     33.45262    2.5481544    846.58539    1684.3126 
  770000    284.18563   -10215.833            0   -10162.312   -2478.5839    32.696226    33.589734     33.45262    2.1533559    847.84144    1683.0285 
  771000    302.51483    -10213.82            0   -10156.846   -1768.2641    32.696226    33.589734     33.45262    2.4297671    849.11295    1681.7751 
  772000    303.55553   -10211.646            0   -10154.477   -1695.7846    32.696226    33.589734     33.45262    2.3265411    850.35363    1680.4607 
  773000    290.08133    -10212.95            0   -10158.318    -2030.317    32.696226    33.589734     33.45262    2.3986752     851.5988    1679.1554 
  774000    303.93059    -10214.51            0    -10157.27   -1172.6159    32.696226    33.589734     33.45262    2.2438754    852.85407    1677.8702 
  775000     298.8801   -10212.701            0   -10156.413   -1353.1433    32.696226    33.589734     33.45262    2.4528069     854.1016    1676.5698 
  776000    297.11303   -10213.163            0   -10157.207   -1704.7865    32.696226    33.589734     33.45262    2.1714436    855.41185    1675.3924 
  777000    293.83758    -10213.69            0   -10158.351   -1717.0792    32.696226    33.589734     33.45262    2.0867563    856.66326    1674.0997 
  778000    300.63788    -10211.17            0   -10154.551    -1544.245    32.696226    33.589734     33.45262    2.2238293    857.96709    1672.9093 
  779000    303.33296   -10214.124            0   -10156.997   -1308.1016    32.696226    33.589734     33.45262    2.1141533    859.30284    1671.7806 
  780000    291.65592    -10213.05            0   -10158.122     -1722.44    32.696226    33.589734     33.45262    2.0886532    860.70009    1670.7708 
  781000    308.45878   -10213.089            0   -10154.997   -305.94627    32.696226    33.589734     33.45262    2.3021501    862.05079    1669.6696 
  782000    297.19975   -10214.073            0   -10158.101   -1981.3963    32.696226    33.589734     33.45262    2.6974407    863.40423     1668.573 
  783000    297.27209   -10214.141            0   -10158.155   -418.62918    32.696226    33.589734     33.45262    2.8175556    864.71179    1667.3872 
  784000    303.39998   -10212.695            0   -10155.555   -1967.8904    32.696226    33.589734     33.45262     2.441685    866.07394     1666.306 
  785000    305.99719   -10214.512            0   -10156.883   -1910.4982    32.696226    33.589734     33.45262    2.6642288    867.41826    1665.1898 
  786000    292.47244   -10215.432            0    -10160.35   -1566.7956    32.696226    33.589734     33.45262    2.3556121    868.74461    1664.0385 
  787000    307.69679   -10213.912            0   -10155.963      -2648.9    32.696226    33.589734     33.45262     2.314307    870.03931    1662.8262 
  788000    308.73203   -10213.706            0   -10155.562   -934.54393    32.696226    33.589734     33.45262    2.5623789    871.24631    1661.4465 
  789000    293.44994   -10213.156            0    -10157.89   -1193.0381    32.696226    33.589734     33.45262    2.5376764    872.47539    1660.1092 
  790000    297.50035   -10213.483            0   -10157.454   -1481.0971    32.696226    33.589734     33.45262    2.0573773    873.71888    1658.7996 
  791000    299.18809   -10211.037            0    -10154.69   -1895.3269    32.696226    33.589734     33.45262    2.3368709    874.91242    1657.3956 
  792000    299.99778   -10213.955            0   -10157.456   -1251.4322    32.696226    33.589734     33.45262    2.7868386    876.14004    1656.0566 
  793000    287.84438   -10212.715            0   -10158.505   -2405.5085    32.696226    33.589734     33.45262    2.4080536    877.37788    1654.7372 
  794000     308.1691   -10212.756            0   -10154.717   -1228.3135    32.696226    33.589734     33.45262    2.9451076    878.56661    1653.3256 
  795000    296.09925   -10213.438            0   -10157.673   -1366.9581    32.696226    33.589734     33.45262    2.0821942    879.75442     1651.913 
  796000    301.29484   -10211.557            0   -10154.813   -488.31116    32.696226    33.589734     33.45262    2.3123025     881.0071    1650.6225 
  797000    296.08278   -10210.423            0   -10154.661   -1233.6166    32.696226    33.589734     33.45262    2.1073742    882.29088    1649.3903 
  798000    294.15094   -10212.423            0   -10157.025   -897.12233    32.696226    33.589734     33.45262    2.1347886    883.50491    1648.0278 
  799000    299.26444   -10212.957            0   -10156.596   -2075.8101    32.696226    33.589734     33.45262    2.5192789    884.71741    1646.6629 
  800000    303.70619   -10212.306            0   -10155.108   -759.39315    32.696226    33.589734     33.45262    3.1251067    885.96465    1645.3629 
  801000    301.20671   -10212.277            0    -10155.55   -1151.5319    32.696226    33.589734     33.45262    2.4273669    887.19989    1644.0409 
  802000    306.56125   -10216.131            0   -10158.396   -651.42409    32.696226    33.589734     33.45262     2.678516    888.44183    1642.7315 
  803000    299.82072    -10210.57            0   -10154.104   -1110.0484    32.696226    33.589734     33.45262    2.4413939    889.67577    1641.4075 
  804000    298.00581   -10211.901            0   -10155.777   -337.60785    32.696226    33.589734     33.45262    2.1693241    890.87935    1640.0279 
  805000    298.18386   -10213.996            0   -10157.839    -760.8003    32.696226    33.589734     33.45262     2.567059    892.16989    1638.8085 
  806000    305.51727   -10210.961            0   -10153.422   -518.99197    32.696226    33.589734     33.45262    2.5285879    893.46415    1637.5958 
  807000    292.61693   -10211.635            0   -10156.526   -652.32808    32.696226    33.589734     33.45262     2.179088    894.71326    1636.3002 
  808000     300.9999    -10214.19            0   -10157.502   -1674.2438    32.696226    33.589734     33.45262    2.5652554    895.90404    1634.8983 
  809000     312.2778   -10213.755            0   -10154.943   -361.77575    32.696226    33.589734     33.45262    2.2218176    897.13587    1633.5718 
  810000    305.50562   -10213.786            0   -10156.249   -774.30607    32.696226    33.589734     33.45262    2.7788094    898.35811    1632.2281 
  811000    294.67002   -10213.471            0   -10157.975   -1391.3192    32.696226    33.589734     33.45262       2.4732    899.56011    1630.8481 
  812000    298.23513   -10212.391            0   -10156.223   -1190.1969    32.696226    33.589734     33.45262    2.1359225    900.81665    1629.5672 
  813000     303.1367   -10210.511            0    -10153.42   -951.39056    32.696226    33.589734     33.45262     2.511166     902.0874     1628.312 
  814000    307.00162   -10215.307            0   -10157.489   -738.21327    32.696226    33.589734     33.45262     3.245104    903.37515    1627.0875 
  815000    308.63647   -10216.861            0   -10158.735   -1238.4318    32.696226    33.589734     33.45262    2.3140589    904.73375      1625.99 
  816000    307.36528   -10212.524            0   -10154.638   -263.75022    32.696226    33.589734     33.45262    1.9460893    906.03324    1624.7859 
  817000    294.35353   -10213.071            0   -10157.635   -682.14002    32.696226    33.589734     33.45262    2.4076853     907.3236    1623.5651 
  818000    292.31274   -10213.095            0   -10158.044   -456.40773    32.696226    33.589734     33.45262    2.3650867     908.6136    1622.3435 
  819000    300.86914   -10211.822            0   -10155.158    -273.7093    32.696226    33.589734     33.45262    2.3969265    909.90843    1621.1303 
  820000    309.37266   -10212.545            0    -10154.28    259.79705    32.696226    33.589734     33.45262     2.782981    911.13027    1619.7871 
  821000    291.77159   -10213.074            0   -10158.124   -779.97738    32.696226    33.589734     33.45262    2.2826802    912.34747    1618.4361 
  822000    299.44485   -10212.357            0   -10155.962   -643.41591    32.696226    33.589734     33.45262    2.8692613    913.56347    1617.0833 
  823000    306.00223    -10212.49            0    -10154.86    -1585.024    32.696226    33.589734     33.45262    2.0075972    914.76163    1615.6993 
  824000    299.41348    -10214.88            0   -10158.491   -794.59398    32.696226    33.589734     33.45262     2.809629    915.96779      1614.33 
  825000    288.32683   -10210.599            0   -10156.297   -1339.7157    32.696226    33.589734     33.45262    2.4499853     917.1817    1612.9747 
  826000    310.71538   -10213.171            0   -10154.654   -573.93152    32.696226    33.589734     33.45262    2.1310027    918.42718    1611.6752 
  827000    295.87209   -10214.805            0   -10159.082   -1594.6954    32.696226    33.589734     33.45262    1.9802772    919.64774    1610.3323 
  828000    302.74475   -10212.905            0   -10155.888    -687.2113    32.696226    33.589734     33.45262    2.0873389    920.86094    1608.9768 
  829000    297.95206   -10213.546            0   -10157.432   -925.88503    32.696226    33.589734     33.45262    2.1852903    922.08466    1607.6401 
  830000     296.9567   -10214.332            0   -10158.406   -1501.5039    32.696226    33.589734     33.45262    2.4987281    923.34091    1606.3602 
  831000    313.91259   -10214.978            0   -10155.858   -167.09186    32.696226    33.589734     33.45262    2.3961762    924.65081    1605.1736 
  832000    287.59506   -10214.547            0   -10160.383   -1425.7184    32.696226    33.589734     33.45262    2.2207847    925.95475    1603.9763 
  833000    292.80022   -10213.296            0   -10158.152   -729.75046    32.696226    33.589734     33.45262    2.2589875    927.24448    1602.7541 
  834000     296.6833   -10212.449            0   -10156.574   -1501.5718    32.696226    33.589734     33.45262    2.6110645     928.4669    1601.4157 
  835000    288.96542   -10214.009            0   -10159.588   -982.76133    32.696226    33.589734     33.45262    2.5154229    929.68149    1600.0641 
  836000    287.17023   -10214.022            0   -10159.939   -1465.6737    32.696226    33.589734     33.45262    2.5519148    930.90796    1598.7332 
  837000     302.2264   -10214.247            0   -10157.329   -951.30372    32.696226    33.589734     33.45262    2.6840787    932.18818    1597.4948 
  838000    300.79017   -10213.349            0     -10156.7   -1103.7367    32.696226    33.589734     33.45262    2.5716754    933.40371    1596.1456 
  839000    292.80462   -10213.964            0    -10158.82     -1573.55    32.696226    33.589734     33.45262    2.5908555    934.64783    1594.8456 
  840000    286.34374   -10212.382            0   -10158.454   -571.88614    32.696226    33.589734     33.45262    2.5854316    935.87257    1593.5127 
  841000    312.31539   -10214.072            0   -10155.253   -625.38281    32.696226    33.589734     33.45262    2.5859246    937.13647    1592.2467 
  842000    297.20587   -10214.684            0    -10158.71   -1563.3466    32.696226    33.589734     33.45262    2.4315597    938.37006    1590.9293 
  843000    304.95467   -10215.276            0   -10157.844   -604.97652    32.696226    33.589734     33.45262    2.3678719     939.5592    1589.5369 
  844000    301.99828   -10212.327            0   -10155.451   -431.15257    32.696226    33.589734     33.45262    2.3825641    940.81248    1588.2533 
  845000    299.15732   -10214.203            0   -10157.862   -1143.4727    32.696226    33.589734     33.45262    2.2444727    942.05857    1586.9577 
  846000     297.9218   -10215.266            0   -10159.158   -733.96396    32.696226    33.589734     33.45262    2.6252779    943.35295    1585.7434 
  847000    301.52412   -10211.745            0   -10154.958    -1098.893    32.696226    33.589734     33.45262     2.247743    944.66781    1584.5633 
  848000    303.31675   -10214.612            0   -10157.488   -983.23627    32.696226    33.589734     33.45262    2.5495785    945.97715    1583.3735 
  849000    305.75252   -10215.227            0   -10157.644   -792.08689    32.696226    33.589734     33.45262    2.2246816    947.28768    1582.1854 
  850000    296.08698   -10212.871            0   -10157.108    -1391.357    32.696226    33.589734     33.45262    2.8941375     948.5982     1580.997 
  851000    299.36705   -10213.933            0   -10157.552   -1721.2388    32.696226    33.589734     33.45262    2.1157809    949.89507    1579.7855 
  852000    300.28134   -10214.503            0    -10157.95   -1367.6957    32.696226    33.589734     33.45262    2.0553315    951.14062    1578.4887 
  853000    314.33375   -10214.769            0    -10155.57   -881.44734    32.696226    33.589734     33.45262    2.5073246    952.41164    1577.2342 
  854000     289.0681   -10211.536            0   -10157.095   -870.25778    32.696226    33.589734     33.45262    3.4273387    953.64808    1575.9224 
  855000    296.46558    -10215.23            0   -10159.396   -1798.7855    32.696226    33.589734     33.45262    2.2075765    954.89587    1574.6296 
  856000    306.90951   -10214.049            0   -10156.248   -914.15192    32.696226    33.589734     33.45262    2.5464755    956.15827     1573.361 
  857000    296.99869   -10213.044            0   -10157.109   -1901.5719    32.696226    33.589734     33.45262     2.492743    957.39891    1572.0566 
  858000    299.91706   -10215.867            0   -10159.383   -971.42798    32.696226    33.589734     33.45262    2.1528856    958.67202    1570.8056 
  859000    308.02647   -10215.083            0   -10157.071   -1102.4981    32.696226    33.589734     33.45262    3.3677957    959.97766    1569.6077 
  860000    302.44504   -10213.322            0   -10156.362   -577.33168    32.696226    33.589734     33.45262    2.8773531    961.29584    1568.4301 
  861000    293.76619   -10215.092            0   -10159.766    -1577.644    32.696226    33.589734     33.45262    2.2518833    962.54326    1567.1368 
  862000    298.69848   -10214.375            0    -10158.12   -507.48966    32.696226    33.589734     33.45262    2.4893861    963.77898    1565.8246 
  863000    305.00766   -10213.831            0   -10156.389   -859.31804    32.696226    33.589734     33.45262    2.8109483     965.0002    1564.4892 
  864000    299.60608     -10215.8            0   -10159.375   -1430.5608    32.696226    33.589734     33.45262    2.4808011    966.23719    1563.1795 
  865000    297.52729    -10214.87            0   -10158.836   -766.36779    32.696226    33.589734     33.45262     2.423849    967.48341     1561.885 
  866000    300.03977   -10212.809            0   -10156.302   -792.77691    32.696226    33.589734     33.45262    2.3883298    968.73296    1560.5959 
  867000    287.21592   -10212.514            0   -10158.422   -1633.0312    32.696226    33.589734     33.45262    2.4967589    969.96432    1559.2777 
  868000    284.47587   -10215.745            0   -10162.169   -1529.8381    32.696226    33.589734     33.45262    2.4779932    971.26592    1558.0724 
  869000    300.84949   -10215.007            0   -10158.348   -1707.6442    32.696226    33.589734     33.45262    2.3271702    972.51926    1556.7896 
  870000    302.15244   -10213.782            0   -10156.877   -1279.2881    32.696226    33.589734     33.45262    2.7720736    973.74836    1555.4682 
  871000    293.80662   -10215.169            0   -10159.836    -991.5501    32.696226    33.589734     33.45262     2.153148    974.98731    1554.1626 
  872000    299.51544   -10213.663            0   -10157.255   -1367.3364    32.696226    33.589734     33.45262     2.144485    976.25163    1552.8977 
  873000    307.44442   -10214.432            0    -10156.53   -956.27235    32.696226    33.589734     33.45262    3.3255024    977.49324    1551.5966 
  874000    292.03905   -10214.251            0    -10159.25   -1103.5333    32.696226    33.589734     33.45262    2.5067078     978.7146    1550.2637 
  875000    297.34925   -10211.663            0   -10155.663   -1333.4664    32.696226    33.589734     33.45262    2.7002973    979.97141    1548.9871 
  876000    300.32965   -10213.676            0   -10157.114    -2037.575    32.696226    33.589734     33.45262    2.4888436    981.25746    1547.7566 
  877000    297.62867   -10214.597            0   -10158.544   -552.65981    32.696226    33.589734     33.45262    2.6263649    982.54927    1546.5351 
  878000    297.65083   -10213.537            0    -10157.48   -1275.1471    32.696226    33.589734     33.45262      2.48411    983.88616    1545.3842 
  879000    305.97029   -10214.661            0   -10157.037   -1364.0904    32.696226    33.589734     33.45262    2.6632375    985.17754    1544.1615 
  880000    290.68775   -10215.101            0   -10160.355    -1797.893    32.696226    33.589734     33.45262    2.3809734    986.57469     1543.104 
  881000    304.80041   -10213.869            0   -10156.465   -732.75079    32.696226    33.589734     33.45262    3.2651306    987.94723    1542.0073 
  882000    297.32852   -10213.221            0   -10157.224   -1737.2018    32.696226    33.589734     33.45262    2.4485442    989.30324    1540.8841 
  883000    288.60895   -10216.271            0   -10161.916   -373.97242    32.696226    33.589734     33.45262    2.3352021    990.57984    1539.6369 
  884000    304.58885   -10214.271            0   -10156.907   -1269.9415    32.696226    33.589734     33.45262    2.5083821    991.81428    1538.3242 
  885000     305.7318   -10214.408            0   -10156.828   -1389.5634    32.696226    33.589734     33.45262    2.4307742    993.05955    1537.0285 
  886000    297.50377   -10215.571            0   -10159.541   -1305.5064    32.696226    33.589734     33.45262     2.285609    994.31348    1535.7463 
  887000    304.07792   -10213.949            0   -10156.682    -2314.399    32.696226    33.589734     33.45262    2.0931131    995.53275    1534.4107 
  888000    295.98702   -10212.245            0   -10156.502    -1631.205    32.696226    33.589734     33.45262    2.6338689    996.77921    1533.1173 
  889000    298.10348   -10215.949            0   -10159.807   -1312.1481    32.696226    33.589734     33.45262    2.6758933    998.00755    1531.7961 
  890000    293.66736   -10213.018            0   -10157.711   -1076.4764    32.696226    33.589734     33.45262    2.3576481    999.25612    1530.5062 
  891000    307.38439   -10212.981            0   -10155.091   -1197.0401    32.696226    33.589734     33.45262    2.7324468    1000.5756    1529.3247 
  892000    298.96341   -10215.311            0   -10159.007   -1349.0035    32.696226    33.589734     33.45262    2.3579965    1001.8076    1528.0096 
  893000    299.55104   -10214.214            0   -10157.799   -1859.1582    32.696226    33.589734     33.45262    2.7083933    1003.0422    1526.6985 
  894000    315.07962   -10211.594            0   -10152.254   -1513.2402    32.696226    33.589734     33.45262    2.4783289    1004.2955    1525.4161 
  895000    305.64433   -10212.738            0   -10155.176   -1851.6843    32.696226    33.589734     33.45262    2.2149255    1005.5557    1524.1442 
  896000    298.50263   -10215.134            0   -10158.917   -1081.1104    32.696226    33.589734     33.45262    2.3892121    1006.8279    1522.8904 
  897000      303.785   -10214.716            0   -10157.503   -927.66496    32.696226    33.589734     33.45262    2.5382176    1008.0402    1521.5462 
  898000    309.07457    -10213.34            0   -10155.131   -1264.0134    32.696226    33.589734     33.45262    2.2010468    1009.3037    1520.2795 
  899000     303.0408   -10215.324            0   -10158.252   -2217.6842    32.696226    33.589734     33.45262    2.4278376    1010.5148    1518.9339 
  900000    300.55732   -10213.593            0   -10156.989   -1367.4603    32.696226    33.589734     33.45262    2.1125847    1011.7655    1517.6483 
  901000    300.40404   -10212.687            0   -10156.112   -1085.2842    32.696226    33.589734     33.45262    2.2283784    1013.1076    1516.4994 
  902000    292.06523    -10214.98            0   -10159.974    -1255.877    32.696226    33.589734     33.45262     2.340728    1014.4206    1515.3066 
  903000    307.11263   -10214.132            0   -10156.293   -795.68548    32.696226    33.589734     33.45262    1.9744777    1015.6995    1514.0626 
  904000    300.92505   -10213.839            0   -10157.165    -455.3581    32.696226    33.589734     33.45262    2.1463429    1016.9523    1512.7797 
  905000    300.21106   -10215.764            0   -10159.224    -1328.101    32.696226    33.589734     33.45262    2.6768966      1018.22    1511.5191 
  906000    298.80315     -10211.1            0   -10154.826   -1186.3693    32.696226    33.589734     33.45262    2.8177671    1019.4261    1510.1672 
  907000    301.59833   -10214.728            0   -10157.927   -329.80096    32.696226    33.589734     33.45262    2.8192706    1020.6643    1508.8631 
  908000     293.3723   -10213.797            0   -10158.545   -1487.9892    32.696226    33.589734     33.45262    2.3867483      1021.91    1507.5703 
  909000    316.38407   -10213.543            0   -10153.958   -172.87704    32.696226    33.589734     33.45262    2.4444295    1023.2697    1506.4453 
  910000    311.29718   -10214.494            0   -10155.867   -1103.2759    32.696226    33.589734     33.45262    3.1780356    1024.5944    1505.2684 
  911000    302.35611   -10215.338            0   -10158.395   -1570.2051    32.696226    33.589734     33.45262    2.4481083    1025.9674    1504.1618 
  912000    296.77054   -10213.619            0   -10157.728   -225.69405    32.696226    33.589734     33.45262    2.6222908     1027.315    1503.0175 
  913000      301.138   -10211.913            0   -10155.199   -1292.9142    32.696226    33.589734     33.45262    2.3756001    1028.6297    1501.8246 
  914000    297.30536   -10215.514            0   -10159.521   -1333.2167    32.696226    33.589734     33.45262    2.4106955    1029.9411    1500.6267 
  915000    300.66517   -10213.753            0   -10157.128    -1428.878    32.696226    33.589734     33.45262    2.1188895    1031.1271    1499.2462 
  916000     292.7722   -10212.605            0   -10157.466   -890.40651    32.696226    33.589734     33.45262    2.5920948    1032.3871    1497.9734 
  917000    294.85946   -10216.347            0   -10160.816   -1735.8614    32.696226    33.589734     33.45262    1.9703944    1033.6677    1496.7306 
  918000     301.7154   -10213.456            0   -10156.634   -1420.3053    32.696226    33.589734     33.45262    2.4825273    1034.8971    1495.4137 
  919000    304.03031   -10215.126            0   -10157.867   -2273.0978    32.696226    33.589734     33.45262    2.9177146    1036.1079    1494.0701 
  920000    301.49875   -10217.206            0   -10160.424   -1152.8988    32.696226    33.589734     33.45262    2.5184394    1037.3476    1492.7685 
  921000    304.89968   -10215.129            0   -10157.707   -1384.7409    32.696226    33.589734     33.45262    2.1082583    1038.5963      1491.48 
  922000    308.72466   -10215.327            0   -10157.184   -2168.7829    32.696226    33.589734     33.45262    3.1935935    1039.8209    1490.1569 
  923000    288.46678   -10214.932            0   -10160.605   -915.73381    32.696226    33.589734     33.45262    2.4338246     1041.062    1488.8578 
  924000    292.23113   -10212.333            0   -10157.296   -1066.8216    32.696226    33.589734     33.45262    2.3578581    1042.2994    1487.5536 
  925000    297.45943   -10212.933            0   -10156.912   -794.75006    32.696226    33.589734     33.45262    2.4254979    1043.6245    1486.3742 
  926000     298.8429   -10217.514            0   -10161.232   -2157.5749    32.696226    33.589734     33.45262    2.4227581    1044.9705    1485.2244 
  927000    298.62528   -10213.821            0   -10157.581   -1463.7661    32.696226    33.589734     33.45262    2.2756309    1046.2385    1483.9634 
  928000    301.24299   -10212.901            0   -10156.168   -1199.5893    32.696226    33.589734     33.45262    2.2817397    1047.4311    1482.5958 
  929000    301.03346   -10215.148            0   -10158.454   -1886.4675    32.696226    33.589734     33.45262    2.8133642    1048.7198    1481.3642 
  930000    293.57804   -10213.887            0   -10158.596   -1052.6972    32.696226    33.589734     33.45262    2.8210125    1049.9325    1480.0253 
  931000    305.19006   -10212.512            0   -10155.035   -1496.4337    32.696226    33.589734     33.45262    2.4478987    1051.1689    1478.7202 
  932000     296.1536   -10214.779            0   -10159.003    -1519.515    32.696226    33.589734     33.45262    2.7975123    1052.3707    1477.3666 
  933000    298.74068   -10214.494            0   -10158.232   -1104.3901    32.696226    33.589734     33.45262    2.4773066     1053.615    1476.0729 
  934000    299.09991   -10212.281            0    -10155.95   -1824.7875    32.696226    33.589734     33.45262    2.7775066    1054.8578    1474.7772 
  935000    303.71532   -10210.288            0   -10153.089    -864.9485    32.696226    33.589734     33.45262    2.4403331    1056.1245     1473.515 
  936000    301.51583    -10213.52            0   -10156.735   -1028.3895    32.696226    33.589734     33.45262    2.4183039    1057.3771    1472.2332 
  937000    296.63824    -10213.54            0   -10157.674   -745.95734    32.696226    33.589734     33.45262    2.3493751     1058.622    1470.9408 
  938000    309.29601   -10212.076            0   -10153.826   -1950.5313    32.696226    33.589734     33.45262    2.2377522    1059.8856    1469.6743 
  939000    290.93055   -10211.743            0   -10156.952   -208.74847    32.696226    33.589734     33.45262    2.6083834    1061.1774    1468.4469 
  940000     295.2961   -10212.916            0   -10157.302   -812.79352    32.696226    33.589734     33.45262    2.5655594    1062.4985    1467.2599 
  941000     312.0298    -10213.09            0   -10154.324   -716.52134    32.696226    33.589734     33.45262    2.4417628    1063.8043    1466.0514 
  942000    306.19269   -10215.578            0   -10157.912   -1510.4024    32.696226    33.589734     33.45262    2.2691052    1065.1889    1464.9511 
  943000       297.88   -10213.737            0   -10157.637   -892.20166    32.696226    33.589734     33.45262    2.4446724    1066.5324    1463.7936 
  944000    313.12507   -10213.144            0   -10154.173   -559.68363    32.696226    33.589734     33.45262    2.1772992    1067.8705    1462.6284 
  945000    292.57737   -10214.365            0   -10159.263   -1163.1839    32.696226    33.589734     33.45262    2.3548344    1069.1764    1461.4187 
  946000    303.96531   -10213.849            0   -10156.603   -263.85221    32.696226    33.589734     33.45262    2.0671574    1070.4981    1460.2303 
  947000    309.58723   -10214.133            0   -10155.828   -941.30666    32.696226    33.589734     33.45262    2.6792377    1071.7084    1458.8899 
  948000     303.2363   -10216.993            0   -10159.884   -1786.6902    32.696226    33.589734     33.45262    2.3462402    1072.8981    1457.5219 
  949000    302.93816   -10214.096            0   -10157.043   -748.51013    32.696226    33.589734     33.45262    2.3016498    1074.1549    1456.2453 
  950000    301.36472   -10214.389            0   -10157.632     -723.613    32.696226    33.589734     33.45262    2.3722033    1075.4632    1455.0385 
  951000    295.52408   -10215.712            0   -10160.055   -1342.4788    32.696226    33.589734     33.45262    2.4518532    1076.8176    1453.8935 
  952000    306.56513   -10214.314            0   -10156.578    -1638.085    32.696226    33.589734     33.45262     2.221858    1078.0624    1452.6006 
  953000    297.47282   -10213.934            0   -10157.911   -68.594961    32.696226    33.589734     33.45262    2.1394271    1079.3519    1451.3677 
  954000    286.06842    -10215.13            0   -10161.254   -567.13196    32.696226    33.589734     33.45262    2.2595452    1080.5732    1450.0433 
  955000    301.60907   -10213.877            0   -10157.074   -1347.2679    32.696226    33.589734     33.45262    2.6831466    1081.8278    1448.7636 
  956000    302.52794   -10213.488            0   -10156.512   -1058.5628    32.696226    33.589734     33.45262    3.5186903    1083.0852    1447.4877 
  957000    291.91709   -10215.413            0   -10160.436   -637.62905    32.696226    33.589734     33.45262    2.0360421    1084.3348    1446.2015 
  958000     303.9584   -10214.275            0    -10157.03     811.8646    32.696226    33.589734     33.45262    2.5839041    1085.5653    1444.8899 
  959000    299.19576   -10213.291            0   -10156.942   -921.30799    32.696226    33.589734     33.45262    2.4603888    1086.7768    1443.5534 
  960000    290.38509    -10214.24            0   -10159.551   -1009.7516    32.696226    33.589734     33.45262    2.8159034    1088.0477    1442.2957 
  961000    291.37723   -10216.019            0   -10161.143   -230.83707    32.696226    33.589734     33.45262    2.8328708    1089.2921    1441.0032 
  962000    301.72441   -10213.739            0   -10156.915    -1522.445    32.696226    33.589734     33.45262    2.4518415    1090.5541    1439.7339 
  963000    303.07218    -10215.37            0   -10158.292   -211.73151    32.696226    33.589734     33.45262     2.740141    1091.7861     1438.425 
  964000    294.79826   -10216.797            0   -10161.277   -1401.4082    32.696226    33.589734     33.45262    2.3312585    1093.0455    1437.1524 
  965000    310.38312   -10215.081            0   -10156.626   -691.32762    32.696226    33.589734     33.45262    2.6273256    1094.2517    1435.8101 
  966000    299.52651   -10213.791            0   -10157.381   -103.74917    32.696226    33.589734     33.45262     2.440592    1095.4539    1434.4628 
  967000      286.378   -10214.859            0   -10160.925    -1547.493    32.696226    33.589734     33.45262    2.4779117    1096.7386    1433.2236 
  968000    301.30247   -10213.354            0   -10156.609   -2004.8305    32.696226    33.589734     33.45262    2.4649591    1098.0027    1431.9574 
  969000    298.98016   -10213.925            0   -10157.617   -1424.4517    32.696226    33.589734     33.45262    2.8349821     1099.241    1430.6577 
  970000    296.28863   -10216.326            0   -10160.525   -1344.3646    32.696226    33.589734     33.45262    2.5301481    1100.4989    1429.3836 
  971000    306.43006   -10213.777            0   -10156.066   -1406.0477    32.696226    33.589734     33.45262    2.1475823    1101.7828    1428.1432 
  972000    304.86513   -10213.826            0    -10156.41   -1101.7389    32.696226    33.589734     33.45262    2.3946715    1103.1657    1427.0309 
  973000    297.64884   -10215.308            0   -10159.251   -1139.2126    32.696226    33.589734     33.45262    2.3543306    1104.5668    1425.9413 
  974000    302.80987   -10214.236            0   -10157.207   -1264.1496    32.696226    33.589734     33.45262    2.6825107     1105.979    1424.8653 
  975000     302.3927   -10214.254            0   -10157.303   -1750.1437    32.696226    33.589734     33.45262    2.4863457    1107.2419    1423.5967 
  976000    297.38135   -10213.706            0   -10157.699   -335.95392    32.696226    33.589734     33.45262    3.2371309    1108.5614    1422.4006 
  977000    297.64786   -10213.675            0   -10157.619   -1296.5987    32.696226    33.589734     33.45262    2.3977112    1109.8425    1421.1552 
  978000     304.0874   -10214.578            0   -10157.308    -354.3068    32.696226    33.589734     33.45262     3.014876    1111.1059     1419.887 
  979000    292.13426   -10212.623            0   -10157.605   -204.37971    32.696226    33.589734     33.45262    2.6790921    1112.3794    1418.6318 
  980000    307.70416   -10214.345            0   -10156.394   -807.58435    32.696226    33.589734     33.45262    2.3142339    1113.6135    1417.3263 
  981000    301.42758   -10211.336            0   -10154.568   -472.56414    32.696226    33.589734     33.45262    2.2233534    1114.8319    1416.0011 
  982000    296.35345   -10214.471            0   -10158.658    -1431.318    32.696226    33.589734     33.45262    2.1210295    1116.0699    1414.7009 
  983000    296.16572   -10211.831            0   -10156.053    507.32123    32.696226    33.589734     33.45262    2.6416451     1117.326    1413.4237 
  984000     312.2943   -10211.895            0    -10153.08    -886.1093    32.696226    33.589734     33.45262    3.4751557    1118.5543    1412.1116 
  985000    300.91135    -10213.96            0   -10157.289   -803.91571    32.696226    33.589734     33.45262     2.878683    1119.8222    1410.8494 
  986000    304.55471   -10215.319            0   -10157.962     -1084.69    32.696226    33.589734     33.45262     2.164825    1121.0377    1409.5214 
  987000    308.88299   -10212.384            0   -10154.211   -721.82482    32.696226    33.589734     33.45262     2.337504    1122.3085     1408.263 
  988000    305.07441   -10216.451            0   -10158.996   -1651.6325    32.696226    33.589734     33.45262    1.9466137    1123.5578    1406.9778 
  989000    304.18242   -10214.839            0   -10157.552   -1202.8165    32.696226    33.589734     33.45262    2.0961995    1124.7558    1405.6285 
  990000    300.07687   -10212.211            0   -10155.697   -1309.7627    32.696226    33.589734     33.45262    2.3579182    1126.0238    1404.3668 
  991000     290.6845   -10214.836            0    -10160.09   -440.24456    32.696226    33.589734     33.45262    2.2830696    1127.2758    1403.0852 
  992000    309.36436   -10215.037            0   -10156.774   -1035.3883    32.696226    33.589734     33.45262    2.0919564    1128.4702     1401.732 
  993000     292.8541   -10211.943            0    -10156.79   -782.31941    32.696226    33.589734     33.45262    2.8763777    1129.6927    1400.4141 
  994000    294.51561   -10213.166            0   -10157.699   -1240.1284    32.696226    33.589734     33.45262     2.386971    1130.9275    1399.1116 
  995000    299.88872   -10213.561            0   -10157.083   -781.92157    32.696226    33.589734     33.45262     2.553976    1132.1518    1397.7963 
  996000    300.39764   -10212.594            0   -10156.019   -1064.2805    32.696226    33.589734     33.45262    2.6732032    1133.4845    1396.6148 
  997000    291.33261   -10214.673            0   -10159.805    -1119.844    32.696226    33.589734     33.45262    2.3249265    1134.8255    1395.4431 
  998000    300.05799   -10213.615            0   -10157.104   -758.91751    32.696226    33.589734     33.45262    2.1104663     1136.095    1394.1834 
  999000    300.94056   -10212.408            0   -10155.731   -865.89049    32.696226    33.589734     33.45262    2.3046436    1137.3694    1392.9296 
 1000000    299.86194   -10215.793            0   -10159.319   -1327.4607    32.696226    33.589734     33.45262    2.3253274    1138.6443    1391.6763 
 1001000    287.17345   -10212.687            0   -10158.603   -1465.1063    32.696226    33.589734     33.45262    3.3689073    1139.9223    1390.4269 
 1002000    301.14261    -10212.28            0   -10155.566   -1333.3813    32.696226    33.589734     33.45262    2.1413585    1141.2245    1389.2068 
 1003000    302.09783   -10215.496            0   -10158.602   -509.58543    32.696226    33.589734     33.45262    2.6517634    1142.5488    1388.0133 
 1004000    300.23516   -10214.641            0   -10158.097   -671.38042    32.696226    33.589734     33.45262    2.1659125    1143.8896    1386.8396 
 1005000    307.94023   -10212.832            0   -10154.837   -1100.8795    32.696226    33.589734     33.45262    2.0192544    1145.2671    1385.7099 
 1006000    300.26866   -10214.362            0   -10157.812     -958.417    32.696226    33.589734     33.45262    3.2291672    1146.6273    1384.5588 
 1007000    300.96724   -10215.718            0   -10159.036   -1961.2416    32.696226    33.589734     33.45262    2.2054203    1147.9638    1383.3786 
 1008000    314.19901   -10215.231            0   -10156.057   -935.74896    32.696226    33.589734     33.45262    2.8200113    1149.2536     1382.142 
 1009000    300.97387   -10214.104            0   -10157.421   -1776.1137    32.696226    33.589734     33.45262    2.3607676    1150.5579    1380.9226 
 1010000    290.00025   -10213.582            0   -10158.965    -1288.265    32.696226    33.589734     33.45262    2.3299171    1151.7983    1379.6265 
 1011000    300.59596    -10212.93            0   -10156.318   -1149.8285    32.696226    33.589734     33.45262    2.4703817    1153.0429    1378.3356 
 1012000     307.4797   -10212.519            0    -10154.61   -650.39455    32.696226    33.589734     33.45262    2.4577833    1154.2744    1377.0291 
 1013000    295.33398   -10214.605            0   -10158.985     -1078.37    32.696226    33.589734     33.45262    2.2625537     1155.509    1375.7265 
 1014000    299.47378   -10213.908            0   -10157.507   -554.00262    32.696226    33.589734     33.45262    2.6885354    1156.7318      1374.41 
 1015000    304.19379   -10211.947            0   -10154.657   -994.62591    32.696226    33.589734     33.45262    2.4339322    1158.0048    1373.1533 
 1016000    299.56392   -10214.782            0   -10158.365   -1094.9231    32.696226    33.589734     33.45262    1.9921454    1159.2981    1371.9204 
 1017000     294.3818   -10213.585            0   -10158.143   -1170.3896    32.696226    33.589734     33.45262    2.4971421    1160.5526    1370.6417 
 1018000    306.83473   -10212.864            0   -10155.077   -361.16143    32.696226    33.589734     33.45262    2.7351586    1161.7994     1369.354 
 1019000    299.46641    -10215.66            0   -10159.261   -1846.4187    32.696226    33.589734     33.45262     2.412279    1163.1094    1368.1407 
 1020000    306.74334   -10216.616            0   -10158.846   -261.97149    32.696226    33.589734     33.45262    2.1837799     1164.473      1366.99 
 1021000    309.11124   -10212.766            0    -10154.55    78.124126    32.696226    33.589734     33.45262    2.5888768    1165.7331    1365.7177 
 1022000    292.27993   -10214.348            0   -10159.303   -576.24973    32.696226    33.589734     33.45262    2.3994128    1166.9603     1364.407 
 1023000    300.59788   -10214.524            0   -10157.912   -1298.0749    32.696226    33.589734     33.45262     2.585004    1168.2042    1363.1159 
 1024000    297.32483   -10212.268            0   -10156.273   -1526.4053    32.696226    33.589734     33.45262    2.5139215    1169.4419    1361.8176 
 1025000    289.95722   -10215.164            0   -10160.556   -1262.1861    32.696226    33.589734     33.45262    2.3242511    1170.6448    1360.4791 
 1026000    303.15039   -10214.699            0   -10157.606   -1678.5465    32.696226    33.589734     33.45262    2.3637403    1171.8425    1359.1348 
 1027000    304.14727     -10214.6            0   -10157.319   -1802.5392    32.696226    33.589734     33.45262     2.773417    1173.0858    1357.8437 
 1028000    302.22014    -10216.43            0   -10159.513   -1396.7549    32.696226    33.589734     33.45262    2.2950206    1174.3431    1356.5687 
 1029000    287.90735   -10216.521            0   -10162.299   -767.60299    32.696226    33.589734     33.45262    3.2033601    1175.6188    1355.3151 
 1030000    304.71008   -10215.205            0   -10157.818   -1181.6086    32.696226    33.589734     33.45262    2.2125248    1176.8623    1354.0243 
 1031000    301.92637   -10214.648            0   -10157.785    -647.6186    32.696226    33.589734     33.45262    2.1817377    1178.0632    1352.6848 
 1032000    301.36221   -10218.421            0   -10161.664   -1545.0042    32.696226    33.589734     33.45262    2.1509907    1179.3389    1351.4313 
 1033000    297.89272   -10214.376            0   -10158.273   -944.03169    32.696226    33.589734     33.45262    2.2287587    1180.5906    1350.1503 
 1034000    301.17508    -10214.39            0   -10157.669   -479.98584    32.696226    33.589734     33.45262    2.6624645    1181.8614    1348.8911 
 1035000    301.78347    -10215.15            0   -10158.315   -303.98651    32.696226    33.589734     33.45262    2.5642164    1183.1491    1347.6511 
 1036000    295.58744   -10216.415            0   -10160.747   -1581.4638    32.696226    33.589734     33.45262    2.2845172    1184.4945    1346.4766 
 1037000    299.17233   -10212.416            0   -10156.072   -1581.3473    32.696226    33.589734     33.45262    2.4529885    1185.8527    1345.3164 
 1038000     304.8873   -10215.756            0   -10158.336   -653.95023    32.696226    33.589734     33.45262     2.517787     1187.152    1344.0889 
 1039000    297.11099   -10215.232            0   -10159.277   -1582.6116    32.696226    33.589734     33.45262    2.2446614    1188.4592    1342.8703 
 1040000    292.64214   -10213.152            0   -10158.039    -1265.842    32.696226    33.589734     33.45262    2.4238789    1189.7537    1341.6371 
 1041000    308.46374   -10214.602            0   -10156.509   -2187.4147    32.696226    33.589734     33.45262     2.123171    1191.0444    1340.3996 
 1042000    305.21651   -10212.982            0     -10155.5   -1024.9757    32.696226    33.589734     33.45262    2.0685899    1192.2482    1339.0643 
 1043000    296.45776   -10215.153            0   -10159.321   -1649.6077    32.696226    33.589734     33.45262    2.1050664    1193.5109    1337.7953 
 1044000    300.29813   -10213.731            0   -10157.175   -1109.5252    32.696226    33.589734     33.45262    2.6423536    1194.8172    1336.5751 
 1045000    309.10134    -10212.81            0   -10154.596   -715.02739    32.696226    33.589734     33.45262    2.8179354    1196.1381    1335.3711 
 1046000    301.72745    -10214.76            0   -10157.935   -1149.2924    32.696226    33.589734     33.45262    2.0108815    1197.3378    1334.0318 
 1047000    302.91581   -10215.444            0   -10158.395    -828.4926    32.696226    33.589734     33.45262    2.2060112    1198.5626    1332.7207 
 1048000    304.60639   -10211.705            0   -10154.337    -807.9501    32.696226    33.589734     33.45262     2.336239    1199.8086    1331.4331 
 1049000    302.02761   -10214.798            0   -10157.916   -1362.3202    32.696226    33.589734     33.45262     2.728469    1201.0394     1330.129 
 1050000    294.23512   -10213.649            0   -10158.235   -1255.7599    32.696226    33.589734     33.45262    2.7798335    1202.2843    1328.8405 
 1051000    309.54676   -10213.225            0   -10154.927    -1196.786    32.696226    33.589734     33.45262    2.4586741    1203.5266    1327.5493 
 1052000    298.95594   -10214.982            0   -10158.679   -1508.1917    32.696226    33.589734     33.45262    2.9129155    1204.7897    1326.2811 
 1053000    309.54526   -10216.491            0   -10158.194   -1336.1351    32.696226    33.589734     33.45262    2.7524181    1206.0275    1324.9851 
 1054000    305.26988   -10212.559            0   -10155.066   -933.71345    32.696226    33.589734     33.45262    2.5215548    1207.2599    1323.6832 
 1055000    303.11288   -10214.392            0   -10157.307   -937.09928    32.696226    33.589734     33.45262    2.1680421    1208.4722    1322.3596 
 1056000    295.60253   -10214.975            0   -10159.304   -2002.6492    32.696226    33.589734     33.45262    2.2385199    1209.7261    1321.0816 
 1057000    305.41182   -10212.913            0   -10155.394   -662.61006    32.696226    33.589734     33.45262    2.5814089    1211.0129    1319.8396 
 1058000    307.77498   -10215.518            0   -10157.554   -1099.6129    32.696226    33.589734     33.45262    2.4091562    1212.2279    1318.5193 
 1059000    307.93593   -10216.504            0    -10158.51    100.46452    32.696226    33.589734     33.45262    2.3944089    1213.4406    1317.1967 
 1060000    303.98811   -10214.658            0   -10157.407   -329.05273    32.696226    33.589734     33.45262    2.3043521    1214.6923    1315.9166 
 1061000    301.36121    -10212.51            0   -10155.754   -541.73618    32.696226    33.589734     33.45262    2.5714844    1215.9541    1314.6476 
 1062000    304.63013   -10217.268            0   -10159.897   -1649.4722    32.696226    33.589734     33.45262    2.3127714    1217.2238    1313.3871 
 1063000    314.85572   -10216.984            0   -10157.686   -1432.2053    32.696226    33.589734     33.45262    2.7556417    1218.4329    1312.0612 
 1064000     310.7377   -10210.501            0   -10151.979   -1465.3004    32.696226    33.589734     33.45262    3.1183617    1219.6766    1310.7727 
 1065000    311.00448   -10213.645            0   -10155.073   -1218.1022    32.696226    33.589734     33.45262    2.0641021    1220.9504    1309.5168 
 1066000    295.92754   -10214.494            0   -10158.761   -1116.4254    32.696226    33.589734     33.45262    2.4381264    1222.2158    1308.2517 
 1067000     302.8256   -10214.922            0    -10157.89    -602.1558    32.696226    33.589734     33.45262    2.4085922    1223.6003    1307.1138 
 1068000     305.5916   -10213.228            0   -10155.675   -1611.3718    32.696226    33.589734     33.45262    2.1773974    1225.0197    1306.0127 
 1069000    290.93729       -10213            0   -10158.207   -554.51068    32.696226    33.589734     33.45262    2.3194077    1226.4394    1304.9113 
 1070000    300.04467   -10214.321            0   -10157.813    423.32739    32.696226    33.589734     33.45262    2.1934582    1227.7711    1303.7157 
 1071000    302.59584   -10213.706            0   -10156.718   -1881.9441    32.696226    33.589734     33.45262    2.4043714    1229.0826    1302.4985 
 1072000    294.86834   -10212.213            0    -10156.68    -1622.544    32.696226    33.589734     33.45262    2.4778464    1230.3537    1301.2383 
 1073000    294.42219   -10215.185            0   -10159.736   -651.37865    32.696226    33.589734     33.45262    3.2210485    1231.5846    1299.9357 
 1074000    307.03296   -10213.836            0   -10156.012   -864.66894    32.696226    33.589734     33.45262    2.5475371    1232.8234    1298.6415 
 1075000    304.01818   -10213.107            0    -10155.85   -592.10173    32.696226    33.589734     33.45262    2.2264735     1234.035    1297.3189 
 1076000    295.38542   -10214.871            0    -10159.24   -2375.3243    32.696226    33.589734     33.45262    2.0290834    1235.3208    1296.0743 
 1077000    298.71626   -10213.638            0    -10157.38   -954.49997    32.696226    33.589734     33.45262    2.3354917    1236.5777    1294.7994 
 1078000    316.78723   -10213.965            0   -10154.304    -250.0194    32.696226    33.589734     33.45262    2.8843528    1237.8102     1293.499 
 1079000    303.40413    -10212.81            0   -10155.669   -1215.7449    32.696226    33.589734     33.45262    3.5146271    1239.0937     1292.252 
 1080000    292.77315   -10213.051            0   -10157.912   -1968.8638    32.696226    33.589734     33.45262    2.1112751    1240.3592    1290.9861 
 1081000    311.21898    -10212.61            0   -10153.997    105.05899    32.696226    33.589734     33.45262    2.6285756    1241.6039    1289.6987 
 1082000    300.89809   -10212.871            0   -10156.203   -1710.8021    32.696226    33.589734     33.45262    2.1556156    1242.8449    1288.4074 
 1083000    296.49664   -10213.791            0   -10157.951   -1269.3185    32.696226    33.589734     33.45262    2.9498796    1244.1082    1287.1395 
 1084000    292.95947   -10212.965            0   -10157.792   -1461.1471    32.696226    33.589734     33.45262    2.3937681    1245.3221    1285.8204 
 1085000    311.42613    -10213.59            0   -10154.938   -1092.4297    32.696226    33.589734     33.45262    2.6982603    1246.5344    1284.4999 
 1086000    297.09289   -10215.327            0   -10159.375   -167.31971    32.696226    33.589734     33.45262    2.7307082    1247.7494    1283.1824 
 1087000      298.664   -10213.561            0   -10157.313   -693.90044    32.696226    33.589734     33.45262    2.3567176    1248.9561    1281.8567 
 1088000    302.60206   -10212.729            0   -10155.739   -489.64126    32.696226    33.589734     33.45262    2.5245452    1250.2034    1280.5727 
 1089000    289.68541   -10214.636            0   -10160.079    -1366.267    32.696226    33.589734     33.45262     2.134694    1251.4516    1279.2897 
 1090000    307.82171   -10214.308            0   -10156.336   -879.29418    32.696226    33.589734     33.45262    2.8993425    1252.6865    1277.9933 
 1091000    295.23229   -10212.991            0    -10157.39     -1020.55    32.696226    33.589734     33.45262    2.3038504     1253.893     1276.668 
 1092000    289.61752   -10216.498            0   -10161.954   -536.36833    32.696226    33.589734     33.45262    2.4929682    1255.1623    1275.4069 
 1093000    300.45401    -10215.06            0   -10158.475   -688.43356    32.696226    33.589734     33.45262    2.6156279    1256.4193    1274.1332 
 1094000    305.31446   -10214.348            0   -10156.848   -824.47427    32.696226    33.589734     33.45262    2.1904356    1257.6886     1272.872 
 1095000    285.92748   -10214.563            0   -10160.714   -1192.7597    32.696226    33.589734     33.45262    2.6796247    1258.9326    1271.5852 
 1096000    305.12547   -10215.667            0   -10158.202   -1350.9058    32.696226    33.589734     33.45262    2.5052939    1260.1279    1270.2494 
 1097000    304.13461   -10214.598            0    -10157.32   -1615.8604    32.696226    33.589734     33.45262    2.6179441    1261.3829     1268.974 
 1098000    301.00456   -10217.694            0   -10161.005     -193.005    32.696226    33.589734     33.45262      2.69655    1262.6654    1267.7262 
 1099000    295.99604   -10215.886            0   -10160.141   -306.86955    32.696226    33.589734     33.45262    2.4463867    1263.9764    1266.5068 
 1100000    301.71566     -10214.7            0   -10157.877   -558.70347    32.696226    33.589734     33.45262    2.7067852    1265.3553    1265.3553 
 1101000       307.74   -10214.327            0    -10156.37    -1251.524    32.696226    33.589734     33.45262    2.2081984    1266.6707    1264.1399 
 1102000    287.15031   -10214.475            0   -10160.396   -863.08303    32.696226    33.589734     33.45262    2.3715962    1267.9853    1262.9235 
 1103000    296.40855   -10213.811            0   -10157.988   -434.50698    32.696226    33.589734     33.45262    2.4048836    1269.3082    1261.7151 
 1104000    302.42819   -10214.158            0   -10157.201   -1091.7743    32.696226    33.589734     33.45262    2.3309867    1270.5161    1260.3925 
 1105000    295.54512   -10215.669            0   -10160.009    -666.2508    32.696226    33.589734     33.45262     2.324785    1271.8198    1259.1649 
 1106000    297.63259   -10215.964            0    -10159.91   -514.62307    32.696226    33.589734     33.45262    2.8140664    1273.0682    1257.8825 
 1107000    299.69378   -10212.604            0   -10156.162   -773.40503    32.696226    33.589734     33.45262    2.4411374    1274.3341    1256.6174 
 1108000    300.38772   -10216.033            0   -10159.461   -644.51494    32.696226    33.589734     33.45262    2.1968474    1275.5707    1255.3236 
 1109000    295.41444   -10214.735            0   -10159.099    -1451.715    32.696226    33.589734     33.45262    2.5588873    1276.7821     1254.005 
 1110000    305.15822   -10213.108            0   -10155.637   -481.95066    32.696226    33.589734     33.45262    2.5862926    1278.0291    1252.7215 
 1111000    292.13826   -10214.194            0   -10159.175   -1239.5452    32.696226    33.589734     33.45262    2.1773537    1279.2704    1251.4327 
 1112000     300.5511   -10212.751            0   -10156.147   -1031.5112    32.696226    33.589734     33.45262    2.7541003    1280.5311    1250.1628 
 1113000    311.92608   -10214.416            0    -10155.67   -1934.1786    32.696226    33.589734     33.45262    2.1097382    1281.7825    1248.8838 
 1114000    300.32034    -10215.11            0    -10158.55    -551.3331    32.696226    33.589734     33.45262    2.7465501    1283.0712    1247.6413 
 1115000    300.68899   -10214.904            0   -10158.274   -478.70061    32.696226    33.589734     33.45262    2.7306489    1284.3251    1246.3647 
 1116000     301.8506   -10211.776            0   -10154.928   -761.11447    32.696226    33.589734     33.45262    2.3871445    1285.5654    1245.0751 
 1117000    300.10475   -10215.251            0   -10158.732   -1158.8194    32.696226    33.589734     33.45262    2.1685482    1286.9176    1243.8938 
 1118000    295.24363   -10213.801            0   -10158.197   -1001.4943    32.696226    33.589734     33.45262    2.0782477    1288.2736    1242.7158 
 1119000    305.97909   -10211.635            0    -10154.01   -1219.4839    32.696226    33.589734     33.45262    2.6886579    1289.5456    1241.4566 
 1120000    314.24794   -10217.035            0   -10157.852   -1083.4224    32.696226    33.589734     33.45262    2.2904602    1290.8044    1240.1847 
 1121000    302.02867   -10215.478            0   -10158.596   -796.26342    32.696226    33.589734     33.45262    2.2451728    1292.0366    1238.8872 
 1122000    296.31647   -10210.979            0   -10155.173   -1319.5965    32.696226    33.589734     33.45262    3.5361668    1293.3009    1237.6206 
 1123000    293.19665   -10214.461            0   -10159.242   -1247.4737    32.696226    33.589734     33.45262     2.388804    1294.5539    1236.3432 
 1124000    302.24939   -10215.197            0   -10158.273   -1747.9852    32.696226    33.589734     33.45262    2.6993395       1295.8    1235.0594 
 1125000    296.68869   -10211.513            0   -10155.637   -753.79174    32.696226    33.589734     33.45262    2.6918908    1297.0681    1233.7965 
 1126000    292.15967   -10215.483            0    -10160.46   -2368.9353    32.696226    33.589734     33.45262    2.6594579    1298.3314     1232.529 
 1127000    300.66769    -10213.96            0   -10157.334   -1144.1793    32.696226    33.589734     33.45262    2.8602037    1299.5653    1231.2337 
 1128000    294.53587   -10212.185            0   -10156.715   -1424.3392    32.696226    33.589734     33.45262    2.8490386    1300.8515     1229.988 
 1129000    298.52507   -10217.118            0   -10160.897   -2240.2004    32.696226    33.589734     33.45262     2.428786    1302.1533    1228.7569 
 1130000    297.27354   -10213.274            0   -10157.288   -540.12861    32.696226    33.589734     33.45262    2.3134136    1303.4587     1227.529 
 1131000    292.58285   -10212.867            0   -10157.764   -635.18766    32.696226    33.589734     33.45262    2.3587136    1304.8051    1226.3396 
 1132000    295.17395   -10216.691            0   -10161.101   -1601.0819    32.696226    33.589734     33.45262    2.1403793    1306.1544    1225.1525 
 1133000    293.01738   -10214.314            0   -10159.129   -1100.7037    32.696226    33.589734     33.45262    2.1771624    1307.4562    1223.9208 
 1134000    295.25942   -10212.596            0   -10156.989   -1090.9926    32.696226    33.589734     33.45262    2.7393154     1308.771     1222.701 
 1135000    301.13415    -10215.14            0   -10158.427   -704.98351    32.696226    33.589734     33.45262    2.3622666    1310.0698     1221.466 
 1136000    295.09769   -10215.366            0    -10159.79    -483.5098    32.696226    33.589734     33.45262    2.7128746    1311.2881    1220.1561 
 1137000    298.13524   -10212.394            0   -10156.246   -1042.5346    32.696226    33.589734     33.45262    2.5825548    1312.5053    1218.8453 
 1138000    297.18542   -10214.556            0   -10158.586    -1102.351    32.696226    33.589734     33.45262    2.5756445    1313.7348    1217.5461 
 1139000    291.07331   -10211.622            0   -10156.804   -1736.0517    32.696226    33.589734     33.45262    2.0628506     1314.996    1216.2763 
 1140000     310.7513   -10214.132            0   -10155.607   -608.70287    32.696226    33.589734     33.45262     2.405708    1316.2109    1214.9639 
 1141000    301.53862    -10215.21            0    -10158.42   -501.95351    32.696226    33.589734     33.45262    2.2401331    1317.4447    1213.6691 
 1142000    303.05891   -10212.509            0   -10155.434   -1426.3775    32.696226    33.589734     33.45262     2.629026    1318.7211    1212.4135 
 1143000    306.95096   -10212.673            0   -10154.864   -2722.1848    32.696226    33.589734     33.45262     2.524846    1320.0511     1211.207 
 1144000    294.20734    -10213.47            0   -10158.061    -471.3534    32.696226    33.589734     33.45262    2.1733418    1321.3684    1209.9887 
 1145000    294.79889   -10213.864            0   -10158.344   -513.67221    32.696226    33.589734     33.45262    2.6342479    1322.6215    1208.7115 
 1146000    302.02382   -10212.562            0   -10155.681   -1366.4521    32.696226    33.589734     33.45262    2.5661444    1323.8907    1207.4491 
 1147000    292.70452    -10213.89            0   -10158.764   -1011.9671    32.696226    33.589734     33.45262    2.2793297    1325.1724     1206.198 
 1148000     291.7881     -10213.8            0   -10158.847   -1089.9577    32.696226    33.589734     33.45262    2.4100997    1326.4018    1204.8993 
 1149000    301.68181   -10213.687            0   -10156.871   -2239.4381    32.696226    33.589734     33.45262    2.1734681    1327.6255    1203.5956 
 1150000    310.00164   -10215.928            0   -10157.545   -887.15787    32.696226    33.589734     33.45262    2.0916096    1328.8355    1202.2797 
 1151000    291.54628   -10214.621            0   -10159.713   -1083.3394    32.696226    33.589734     33.45262    2.7282306    1330.0913    1201.0054 
 1152000    289.49111   -10214.412            0   -10159.891   -1426.0521    32.696226    33.589734     33.45262    2.3971791    1331.3351    1199.7202 
 1153000    293.68824   -10212.243            0   -10156.932    -660.2108    32.696226    33.589734     33.45262    2.4270682    1332.5787     1198.435 
 1154000    296.61829   -10215.431            0   -10159.568   -1956.7003    32.696226    33.589734     33.45262    2.3710624    1333.8538    1197.1781 
 1155000    286.16358   -10214.331            0   -10160.437   -1552.1072    32.696226    33.589734     33.45262    3.1048549    1335.0675    1195.8661 
 1156000    300.57235   -10213.057            0    -10156.45   -1742.2566    32.696226    33.589734     33.45262    2.0095699     1336.288    1194.5604 
 1157000    304.02895   -10215.375            0   -10158.116   -1116.6502    32.696226    33.589734     33.45262    1.9684045    1337.5419    1193.2847 
 1158000    294.37264   -10215.956            0   -10160.516   -1389.4631    32.696226    33.589734     33.45262    2.2531461    1338.7638    1191.9806 
 1159000    296.73218   -10211.904            0    -10156.02   -1183.9176    32.696226    33.589734     33.45262    2.6815205    1340.0138    1190.7016 
 1160000    296.10629   -10213.368            0   -10157.602   -477.17065    32.696226    33.589734     33.45262    2.7634264    1341.3112    1189.4647 
 1161000    291.58279   -10213.939            0   -10159.025   -946.77857    32.696226    33.589734     33.45262    2.6307068      1342.59    1188.2111 
 1162000    310.14046   -10212.486            0   -10154.077    -887.1609    32.696226    33.589734     33.45262    2.2192381    1343.9331    1187.0144 
 1163000     317.4874   -10211.478            0   -10151.685    -1125.003    32.696226    33.589734     33.45262    2.1873336    1345.2821    1185.8225 
 1164000    303.52134   -10215.054            0   -10157.891    -1565.812    32.696226    33.589734     33.45262    2.7497087    1346.6285    1184.6281 
 1165000    297.68516   -10214.848            0   -10158.785   -1463.4284    32.696226    33.589734     33.45262    2.3365861    1347.9962    1183.4521 
 1166000    306.53047   -10213.268            0   -10155.538   -1130.7387    32.696226    33.589734     33.45262    2.1477443    1349.3124    1182.2305 
 1167000    291.28108   -10215.007            0   -10160.149   -1443.4856    32.696226    33.589734     33.45262    2.2016054    1350.5993    1180.9833 
 1168000     300.5042   -10214.352            0   -10157.757   -2085.0168    32.696226    33.589734     33.45262    2.3116312    1351.8697    1179.7215 
 1169000    297.15084   -10212.287            0   -10156.324   -870.56581    32.696226    33.589734     33.45262    2.3829942     1353.147    1178.4657 
 1170000    292.43213   -10216.337            0   -10161.263   -1936.0281    32.696226    33.589734     33.45262    2.6723818    1354.4177    1177.2042 
 1171000    295.50079   -10213.874            0   -10158.221   -2113.3901    32.696226    33.589734     33.45262    2.7805464    1355.6774    1175.9331 
 1172000    306.90006   -10214.552            0   -10156.753   -1145.0741    32.696226    33.589734     33.45262    2.5712652    1356.8703    1174.6041 
 1173000    289.90073   -10215.248            0    -10160.65   -1179.3031    32.696226    33.589734     33.45262    2.0916961    1358.0832    1173.2928 
 1174000    301.02742   -10214.676            0   -10157.983   -763.49409    32.696226    33.589734     33.45262    2.2824037    1359.2881    1171.9747 
 1175000    301.47576   -10213.799            0   -10157.021   -855.89911    32.696226    33.589734     33.45262    2.4162106    1360.5366    1170.6943 
 1176000    298.89739   -10216.166            0   -10159.874   -1847.5246    32.696226    33.589734     33.45262    2.4171137    1361.7545    1169.3877 
 1177000     291.6212   -10214.744            0   -10159.823    -1198.238    32.696226    33.589734     33.45262    2.3848564    1363.0005    1168.1054 
 1178000    304.60465   -10214.214            0   -10156.847   -1380.6041    32.696226    33.589734     33.45262    2.5895343    1364.2333    1166.8118 
 1179000    295.68589   -10213.311            0   -10157.624   -966.96461    32.696226    33.589734     33.45262    2.5257124     1365.478    1165.5285 
 1180000    291.50719   -10215.277            0   -10160.377   -1296.2474    32.696226    33.589734     33.45262     2.521866     1366.705    1164.2302 
 1181000    302.02654   -10212.874            0   -10155.992   -1766.5271    32.696226    33.589734     33.45262    2.5202072    1367.9531    1162.9499 
 1182000     296.7707   -10214.681            0    -10158.79   -1404.8405    32.696226    33.589734     33.45262    2.1836419    1369.1696    1161.6429 
 1183000    303.60162   -10213.127            0   -10155.949   -1890.3396    32.696226    33.589734     33.45262    2.4175749    1370.3632    1160.3167 
 1184000    302.21812    -10213.31            0   -10156.392   -65.264719    32.696226    33.589734     33.45262    2.3774777    1371.5779    1159.0087 
 1185000    301.66669   -10215.415            0   -10158.601   -1028.7854    32.696226    33.589734     33.45262    2.1044288    1372.7745    1157.6854 
 1186000    316.05266   -10214.126            0   -10154.603   -1493.7174    32.696226    33.589734     33.45262    2.3253612    1374.0435    1156.4233 
 1187000    300.70154   -10213.583            0   -10156.951   -703.57232    32.696226    33.589734     33.45262    1.9785402    1375.2732    1155.1283 
 1188000     297.7203   -10214.335            0   -10158.265   -937.62252    32.696226    33.589734     33.45262     2.555066    1376.5344    1153.8597 
 1189000    311.86031   -10214.694            0    -10155.96    -209.8463    32.696226    33.589734     33.45262    3.3443778    1377.7494    1152.5525 
 1190000    316.03335     -10214.9            0   -10155.381   -892.52784    32.696226    33.589734     33.45262     2.850439    1379.0124    1151.2856 
 1191000    301.33153   -10215.082            0   -10158.331   -497.99654    32.696226    33.589734     33.45262    2.5768826    1380.2225    1149.9746 
 1192000    297.23569   -10212.419            0    -10156.44   -1333.0663    32.696226    33.589734     33.45262    3.0510486    1381.5076    1148.7261 
 1193000    305.15303   -10212.864            0   -10155.394   -1003.2316    32.696226    33.589734     33.45262    2.6490302    1382.8722    1147.5436 
 1194000    295.52489   -10214.747            0    -10159.09   -1361.2106    32.696226    33.589734     33.45262    2.1885943    1384.2789    1146.3955 
 1195000     297.7806   -10211.858            0   -10155.776   -341.12777    32.696226    33.589734     33.45262    2.1018985     1385.647    1145.2151 
 1196000    298.00734   -10212.136            0   -10156.012   -883.60522    32.696226    33.589734     33.45262    2.6605451    1386.9662     1143.994 
 1197000    305.34482   -10216.391            0   -10158.884   -1219.7862    32.696226    33.589734     33.45262    2.4486294    1388.2826    1142.7705 
 1198000    305.14567   -10213.297            0   -10155.828   -1130.3595    32.696226    33.589734     33.45262    2.4548943     1389.607    1141.5533 
 1199000    308.50421   -10216.734            0   -10158.633   -1457.8649    32.696226    33.589734     33.45262    2.1206176    1390.8765    1140.2909 
 1200000     298.5224    -10215.02            0   -10158.799   -808.56826    32.696226    33.589734     33.45262    2.2609211    1392.1333    1139.0181 
 1201000    302.93241   -10213.602            0   -10156.551   -750.99416    32.696226    33.589734     33.45262    2.5583802    1393.3504     1137.713 
 1202000    295.74619   -10213.019            0    -10157.32   -511.00447    32.696226    33.589734     33.45262    2.5114488    1394.5921    1136.4281 
 1203000    308.59498   -10215.805            0   -10157.687   -800.31307    32.696226    33.589734     33.45262    2.3836435    1395.7925    1135.1096 
 1204000     297.6382   -10212.008            0   -10155.953   -1421.8276    32.696226    33.589734     33.45262    2.1642903    1397.0287    1133.8204 
 1205000    301.05587   -10214.822            0   -10158.124   -1247.8742    32.696226    33.589734     33.45262    2.3604884    1398.2568    1132.5247 
 1206000    292.43917   -10214.335            0   -10159.259   -413.70511    32.696226    33.589734     33.45262    2.2037472    1399.5571    1131.2876 
 1207000    305.43185   -10212.852            0    -10155.33   -1346.9864    32.696226    33.589734     33.45262    2.2467535    1400.7933    1129.9986 
 1208000    296.38945   -10214.438            0   -10158.618   -1778.8515    32.696226    33.589734     33.45262    2.8655898    1402.0339    1128.7132 
 1209000    308.87961   -10215.468            0   -10157.296   -562.47113    32.696226    33.589734     33.45262    1.9083751    1403.2691    1127.4236 
 1210000     307.4907   -10212.398            0   -10154.488   -1412.7788    32.696226    33.589734     33.45262    2.1973907    1404.5214    1126.1478 
 1211000    291.71598   -10213.241            0   -10158.302    -1088.441    32.696226    33.589734     33.45262    2.5450088    1405.7474     1124.851 
 1212000    305.95885   -10214.993            0   -10157.371   -1666.4514    32.696226    33.589734     33.45262    2.2931489    1407.0353    1123.6037 
 1213000    308.98206   -10212.369            0   -10154.178   -908.48603    32.696226    33.589734     33.45262    2.9099386    1408.3096    1122.3456 
 1214000    309.51266   -10215.712            0   -10157.421   -1281.2956    32.696226    33.589734     33.45262    2.0317873    1409.5587    1121.0674 
 1215000    304.63567    -10215.34            0   -10157.967   -1109.0799    32.696226    33.589734     33.45262    1.9330673    1410.8287    1119.8058 
 1216000    298.12177   -10214.302            0   -10158.156   -401.13169    32.696226    33.589734     33.45262     2.112687     1412.102    1118.5468 
 1217000    309.21542   -10214.873            0   -10156.638   -1008.7143    32.696226    33.589734     33.45262    2.8635593     1413.397    1117.3049 
 1218000     305.7682   -10213.479            0   -10155.893   -1460.8903    32.696226    33.589734     33.45262    2.3691024    1414.7414    1116.1019 
 1219000    292.86883     -10214.9            0   -10159.743   -1018.0832    32.696226    33.589734     33.45262    2.5858035    1416.1325    1114.9354 
 1220000    309.71899   -10214.625            0   -10156.295   -483.41314    32.696226    33.589734     33.45262    2.6303694    1417.3332     1113.619 
 1221000    307.37524   -10214.486            0   -10156.597   -1023.3527    32.696226    33.589734     33.45262    2.3050887    1418.6169    1112.3677 
 1222000    299.98449   -10216.132            0   -10159.636   -1162.6941    32.696226    33.589734     33.45262    2.0462565    1419.8661    1111.0895 
 1223000    292.12536    -10217.55            0   -10162.533   -1843.4554    32.696226    33.589734     33.45262    2.1398046    1421.1397    1109.8304 
 1224000    299.79861   -10213.924            0   -10157.462   -653.40812    32.696226    33.589734     33.45262    2.2906114    1422.4415    1108.5932 
 1225000    308.86804   -10215.432            0   -10157.262   -217.54219    32.696226    33.589734     33.45262    2.7277939    1423.7915    1107.3934 
 1226000    290.03898   -10215.763            0   -10161.139   -1682.3602    32.696226    33.589734     33.45262    2.1153964    1425.1618     1106.209 
 1227000    301.11912   -10213.532            0   -10156.822    -251.0609    32.696226    33.589734     33.45262    2.2524567     1426.467     1104.974 
 1228000    299.39646   -10213.983            0   -10157.597   -663.38722    32.696226    33.589734     33.45262    2.2575194    1427.7997    1103.7601 
 1229000    296.79583   -10216.168            0   -10160.272   -670.14164    32.696226    33.589734     33.45262     2.773076     1429.085    1102.5093 
 1230000    305.48801   -10213.571            0   -10156.038   -727.10528    32.696226    33.589734     33.45262    2.4860095    1430.3243    1101.2231 
 1231000    296.77536   -10213.727            0   -10157.835   -1504.7651    32.696226    33.589734     33.45262    2.4652722    1431.5284      1099.91 
 1232000    296.24276   -10214.371            0   -10158.579   -1088.1646    32.696226    33.589734     33.45262    2.2623041    1432.7826    1098.6354 
 1233000    301.58261   -10211.589            0   -10154.792    56.332696    32.696226    33.589734     33.45262    2.3796286    1433.9773    1097.3154 
 1234000    300.71989   -10215.018            0   -10158.382   -658.12913    32.696226    33.589734     33.45262    2.5342008    1435.1963    1096.0141 
 1235000    304.35511   -10213.986            0   -10156.666    169.34911    32.696226    33.589734     33.45262    3.0713994    1436.4015    1094.7025 
 1236000    309.73107   -10212.784            0   -10154.452   -472.83224    32.696226    33.589734     33.45262    2.6547845    1437.6775    1093.4449 
 1237000    298.44911   -10213.962            0   -10157.755   -1124.2648    32.696226    33.589734     33.45262    2.5928247    1438.9493     1092.184 
 1238000    295.12123   -10214.476            0   -10158.896   -2060.2509    32.696226    33.589734     33.45262    2.8734596    1440.2523    1090.9468 
 1239000    310.00749   -10215.092            0   -10156.708   -1282.3858    32.696226    33.589734     33.45262    2.1513728      1441.48    1089.6526 
 1240000    302.30202   -10213.591            0   -10156.657   -2320.6018    32.696226    33.589734     33.45262    2.4089942    1442.6826    1088.3395 
 1241000    302.55578   -10216.691            0    -10159.71   -1197.4711    32.696226    33.589734     33.45262    2.4545821    1443.9502    1087.0756 
 1242000    296.63232   -10213.641            0   -10157.775   -1182.7151    32.696226    33.589734     33.45262    2.2855031     1445.253    1085.8381 
 1243000    298.19984   -10213.642            0   -10157.482    -1323.173    32.696226    33.589734     33.45262    2.4873999    1446.5709    1084.6117 
 1244000    301.41625   -10213.215            0   -10156.448   -321.09409    32.696226    33.589734     33.45262    3.1708392    1447.8895    1083.3859 
 1245000    298.52573   -10211.986            0   -10155.764   -1630.6439    32.696226    33.589734     33.45262     2.399333    1449.1773    1082.1367 
 1246000    293.74316   -10214.567            0   -10159.245   -1324.4798    32.696226    33.589734     33.45262    2.6838599    1450.4418    1080.8703 
 1247000    303.27208   -10212.652            0   -10155.536   -1180.8561    32.696226    33.589734     33.45262    2.0993528    1451.7074    1079.6045 
 1248000    305.13231   -10213.709            0   -10156.243   -1727.7495    32.696226    33.589734     33.45262    2.2309981    1452.9423     1078.316 
 1249000    285.42189    -10211.61            0   -10157.856   -1166.0227    32.696226    33.589734     33.45262    2.8787859    1454.1787    1077.0288 
 1250000    305.69386   -10211.219            0   -10153.647   -1351.8731    32.696226    33.589734     33.45262    2.5039389    1455.4458    1075.7643 
 1251000    304.39729   -10212.474            0   -10155.146   -701.49419    32.696226    33.589734     33.45262    2.5667283    1456.6481     1074.452 
 1252000    298.06816   -10214.366            0    -10158.23   -1334.5205    32.696226    33.589734     33.45262    1.9848552    1457.8856    1073.1658 
 1253000    297.39337    -10213.59            0   -10157.581   -1437.2831    32.696226    33.589734     33.45262    2.5459027    1459.1021    1071.8642 
 1254000    306.99482   -10212.945            0   -10155.128    443.97476    32.696226    33.589734     33.45262    2.4956442    1460.3773    1070.6059 
 1255000    301.81989    -10215.17            0   -10158.328   -1945.6511    32.696226    33.589734     33.45262     2.286235     1461.703    1069.3844 
 1256000    304.84151   -10215.015            0   -10157.604   -1071.2124    32.696226    33.589734     33.45262     2.452375    1462.9981    1068.1405 
 1257000    296.89992   -10210.996            0    -10155.08   -67.716897    32.696226    33.589734     33.45262    3.8643694    1464.3114    1066.9097 
 1258000    302.12847   -10215.915            0   -10159.015   -82.588907    32.696226    33.589734     33.45262    2.8853138    1465.6706    1065.7121 
 1259000    297.87382   -10214.772            0   -10158.672   -710.84128    32.696226    33.589734     33.45262    2.4056844    1466.9435    1064.4517 
 1260000    311.12195   -10214.584            0    -10155.99   -898.62536    32.696226    33.589734     33.45262    2.4155847    1468.2214    1063.1948 
 1261000     297.7662   -10213.682            0   -10157.603    -588.9816    32.696226    33.589734     33.45262    2.4653643    1469.5792    1061.9956 
 1262000     292.3048   -10215.148            0   -10160.098    85.727117    32.696226    33.589734     33.45262    2.4252981    1470.8507     1060.734 
 1263000    299.98251   -10212.193            0   -10155.697    -654.3031    32.696226    33.589734     33.45262     1.963224    1472.0837    1059.4446 
 1264000    299.55981   -10214.155            0   -10157.738   -751.65469    32.696226    33.589734     33.45262    2.2943613    1473.3578    1058.1848 
 1265000    296.10451   -10215.247            0   -10159.481   -605.95845    32.696226    33.589734     33.45262    2.1720065    1474.5338    1056.8547 
 1266000    305.72318   -10215.384            0   -10157.807   -344.36272    32.696226    33.589734     33.45262      2.44673    1475.7656    1055.5648 
 1267000    305.23481   -10215.119            0   -10157.633   -795.66691    32.696226    33.589734     33.45262    2.5071097    1477.0237    1054.2937 
 1268000    305.21212   -10218.251            0    -10160.77   -294.02716    32.696226    33.589734     33.45262    2.6998771    1478.2684    1053.0131 
 1269000    300.89477    -10213.57            0   -10156.902    657.78348    32.696226    33.589734     33.45262    2.9210138      1479.53    1051.7446 
 1270000    302.66926   -10214.769            0   -10157.767   -1075.8793    32.696226    33.589734     33.45262    2.4380954    1480.7975    1050.4803 
 1271000    296.91887   -10215.691            0   -10159.772    16.643279    32.696226    33.589734     33.45262    2.3473667     1482.038    1049.1968 
 1272000     304.1247   -10216.327            0   -10159.051   -419.74953    32.696226    33.589734     33.45262    2.3416095    1483.2779    1047.9131 
 1273000    304.00446   -10213.513            0   -10156.259   -230.78337    32.696226    33.589734     33.45262     2.589079    1484.4845    1046.6059 
 1274000    292.07954    -10215.06            0   -10160.052   -1208.4983    32.696226    33.589734     33.45262    2.2792803    1485.7399    1045.3332 
 1275000    297.23551     -10215.1            0   -10159.121   -578.23571    32.696226    33.589734     33.45262    2.3711554    1487.0182    1044.0766 
 1276000     306.0021   -10215.559            0   -10157.929   -1108.0474    32.696226    33.589734     33.45262    2.1185807    1488.2691    1042.8008 
 1277000    290.59177   -10213.821            0   -10159.094   -1323.0054    32.696226    33.589734     33.45262      2.66576    1489.5356     1041.536 
 1278000    284.20811   -10214.932            0   -10161.406   -623.37111    32.696226    33.589734     33.45262    2.1029224    1490.7829    1040.2577 
 1279000    295.82227    -10213.59            0   -10157.878   -847.66455    32.696226    33.589734     33.45262     2.772904    1492.0271    1038.9773 
 1280000    294.36698   -10214.804            0   -10159.365   -286.43483    32.696226    33.589734     33.45262    2.2702416    1493.3161    1037.7282 
 1281000    292.96647    -10217.55            0   -10162.375   -806.09773    32.696226    33.589734     33.45262    2.5606103    1494.5882    1036.4672 
 1282000    302.14553   -10214.363            0   -10157.459    -625.7867    32.696226    33.589734     33.45262     2.080002    1495.8208    1035.1789 
 1283000    297.11452   -10213.773            0   -10157.817   -584.56158    32.696226    33.589734     33.45262    2.0512751    1497.1022    1033.9243 
 1284000    285.92059   -10215.074            0   -10161.226   -1595.4306    32.696226    33.589734     33.45262    2.0450762    1498.3325    1032.6346 
 1285000    309.59963   -10214.755            0   -10156.448     -840.981    32.696226    33.589734     33.45262    2.2991176     1499.539    1031.3285 
 1286000    303.95713   -10215.682            0   -10158.438   -1049.8104    32.696226    33.589734     33.45262    2.6827099    1500.8201    1030.0738 
 1287000    292.60737    -10215.14            0   -10160.032   -1506.2416    32.696226    33.589734     33.45262    2.1810279     1502.129    1028.8381 
 1288000    304.58902   -10212.973            0    -10155.61   -533.25317    32.696226    33.589734     33.45262      2.60557    1503.4833    1027.6334 
 1289000     300.4658   -10215.781            0   -10159.194   -1241.4183    32.696226    33.589734     33.45262    2.2532054    1504.8136     1026.412 
 1290000    291.02155   -10213.652            0   -10158.843   -1930.4419    32.696226    33.589734     33.45262    2.8946282    1506.1171    1025.1721 
 1291000    300.94523   -10213.823            0   -10157.145    -1026.839    32.696226    33.589734     33.45262    2.5094483    1507.4331    1023.9407 
 1292000    303.46162   -10215.174            0   -10158.022   -1523.8857    32.696226    33.589734     33.45262    2.7460483    1508.7335    1022.6985 
 1293000    298.81725   -10215.925            0   -10159.648   -1331.2004    32.696226    33.589734     33.45262    1.9875472    1510.0375    1021.4587 
 1294000    314.94547   -10215.569            0   -10156.254   -1082.0183    32.696226    33.589734     33.45262    2.1353916    1511.2978    1020.1893 
 1295000    309.89907   -10215.816            0   -10157.452   -1418.8293    32.696226    33.589734     33.45262    2.3015841    1512.6312    1018.9691 
 1296000    285.16846   -10213.897            0   -10160.191   -1136.2008    32.696226    33.589734     33.45262    2.2140085    1513.8339    1017.6609 
 1297000    299.94205   -10213.359            0   -10156.871   -1049.4257    32.696226    33.589734     33.45262    2.3473039    1515.0777    1016.3804 
 1298000    300.10227   -10213.597            0   -10157.079   -491.04317    32.696226    33.589734     33.45262    2.0625483    1516.2896    1015.0787 
 1299000    298.18502   -10216.678            0    -10160.52   -1869.0574    32.696226    33.589734     33.45262    2.4400456    1517.5077    1013.7812 
 1300000    294.61845   -10212.269            0   -10156.783   -740.77045    32.696226    33.589734     33.45262    2.8022948    1518.7383    1012.4922 
 1301000    295.91678   -10214.058            0   -10158.328   -739.84187    32.696226    33.589734     33.45262    2.1336938    1519.9741    1011.2068 
 1302000     288.8605   -10215.962            0    -10161.56   -1282.7238    32.696226    33.589734     33.45262    2.5801147    1521.2506    1009.9484 
 1303000    301.86187   -10215.046            0   -10158.196   -767.41247    32.696226    33.589734     33.45262     2.314819    1522.4778    1008.6574 
 1304000    299.40409   -10213.319            0   -10156.932   -1007.4124    32.696226    33.589734     33.45262    2.4999073    1523.7834    1007.4183 
 1305000    294.21512    -10216.02            0    -10160.61   -2051.1324    32.696226    33.589734     33.45262    2.3300755    1525.0336    1006.1425 
 1306000    300.95601   -10214.986            0   -10158.306   -1389.7432    32.696226    33.589734     33.45262    2.6510368    1526.2963     1004.875 
 1307000    299.38114    -10213.34            0   -10156.957   -668.01511    32.696226    33.589734     33.45262    2.5309865    1527.5444     1003.598 
 1308000    298.89916   -10215.656            0   -10159.364   -784.74878    32.696226    33.589734     33.45262    2.2488424      1528.82    1002.3389 
 1309000    284.61575   -10217.066            0   -10163.464   -747.31848    32.696226    33.589734     33.45262     2.144675    1530.0688    1001.0624 
 1310000    296.71215   -10215.158            0   -10159.278    -1066.621    32.696226    33.589734     33.45262    2.3667168    1531.3265    999.79168 
 1311000    297.91629   -10212.359            0   -10156.252   -2072.7326    32.696226    33.589734     33.45262    2.1207023    1532.5765    998.51601 
 1312000    303.42351   -10216.685            0   -10159.541   -868.34219    32.696226    33.589734     33.45262    2.4625761     1533.824    997.23869 
 1313000    301.95688   -10215.575            0   -10158.707   -747.70992    32.696226    33.589734     33.45262    2.4903631    1535.0381    995.93979 
 1314000    303.76362   -10214.022            0   -10156.813   -1504.3123    32.696226    33.589734     33.45262    3.3526047    1536.2442    994.63587 
 1315000     294.5467   -10213.698            0   -10158.225   -581.23274    32.696226    33.589734     33.45262    2.5548985    1537.4973    993.36245 
 1316000    285.42652   -10216.355            0     -10162.6   -2125.8965    32.696226    33.589734     33.45262    2.6021954    1538.7184    992.06847 
 1317000    297.04888   -10214.733            0    -10158.79   -504.36113    32.696226    33.589734     33.45262    2.4016537    1540.0222    990.82779 
 1318000    303.81025   -10214.005            0   -10156.788   -1547.6905    32.696226    33.589734     33.45262     2.078427    1541.3868    989.62603 
 1319000     298.1749   -10213.681            0   -10157.525   -1170.4902    32.696226    33.589734     33.45262     2.710654    1542.7982      988.454 
 1320000    296.18776   -10215.888            0   -10160.106   -632.65202    32.696226    33.589734     33.45262    2.1620908    1544.1338    987.23307 
 1321000    301.18309   -10212.993            0    -10156.27   -1406.5386    32.696226    33.589734     33.45262    2.2327312    1545.4611     986.0067 
 1322000    297.93378   -10213.479            0   -10157.368   -1569.9817    32.696226    33.589734     33.45262    2.5058179    1546.7948    984.78426 
 1323000    307.04735   -10216.706            0    -10158.88   -49.890193    32.696226    33.589734     33.45262    2.9427559    1548.1549    983.57838 
 1324000    288.61559   -10214.885            0   -10160.529   -1381.2356    32.696226    33.589734     33.45262    2.2583602    1549.4507    982.33146 
 1325000     304.8479   -10214.074            0   -10156.661   -912.28292    32.696226    33.589734     33.45262    2.4289258    1550.7049    981.05819 
 1326000    312.66719   -10216.189            0   -10157.303   -377.06666    32.696226    33.589734     33.45262     2.185077    1552.0278    979.82832 
 1327000    283.39663    -10214.24            0   -10160.867    -2141.425    32.696226    33.589734     33.45262    2.4835536    1553.2947    978.56297 
 1328000    299.85626   -10214.231            0   -10157.759   -1475.7914    32.696226    33.589734     33.45262    2.3102463    1554.5638    977.29906 
 1329000    301.95062   -10213.601            0   -10156.734    -1946.022    32.696226    33.589734     33.45262    2.7103558    1555.8432    976.04162 
 1330000    291.51351   -10215.991            0    -10161.09   -1226.8673    32.696226    33.589734     33.45262    2.4452584    1557.1037    974.77222 
 1331000    290.51973   -10212.067            0   -10157.353   -2146.8532    32.696226    33.589734     33.45262    2.3569045    1558.3352    973.48477 
 1332000    302.20778   -10214.392            0   -10157.476   -1188.2327    32.696226    33.589734     33.45262    3.1171381    1559.5458    972.18438 
 1333000    290.49723   -10216.419            0   -10161.709     -2254.28    32.696226    33.589734     33.45262    2.2430648    1560.7791    970.89829 
 1334000    289.43898    -10213.67            0   -10159.159   -679.21651    32.696226    33.589734     33.45262    2.3840182    1561.9847    969.59501 
 1335000    298.83015   -10213.623            0   -10157.344   -1303.2175    32.696226    33.589734     33.45262    2.1439021    1563.2179    968.30903 
 1336000    299.15238   -10212.751            0   -10156.411   -985.99827    32.696226    33.589734     33.45262    2.9057129    1564.4794    967.04066 
 1337000    293.16539   -10215.241            0   -10160.028   -1625.1676    32.696226    33.589734     33.45262    2.4721742    1565.7349    965.76859 
 1338000    296.53376   -10212.914            0   -10157.067   -1387.4726    32.696226    33.589734     33.45262    2.4389421    1566.9621     964.4791 
 1339000    310.63781   -10215.191            0   -10156.688   -205.16142    32.696226    33.589734     33.45262    2.1438763    1568.1587     963.1709 
 1340000    302.11742   -10215.637            0   -10158.738   -1587.1092    32.696226    33.589734     33.45262    2.0559645    1569.4081    961.89528 
 1341000     309.1796   -10215.219            0   -10156.991   -879.35764    32.696226    33.589734     33.45262      2.35487    1570.7143    960.65443 
 1342000     304.8151   -10212.849            0   -10155.443   -1579.0613    32.696226    33.589734     33.45262     2.012717    1571.9836    959.39096 
 1343000    296.52304   -10214.704            0   -10158.859   -1215.6307    32.696226    33.589734     33.45262    2.5120024    1573.3201     958.1684 
 1344000    305.22225   -10214.244            0   -10156.761   -96.767041    32.696226    33.589734     33.45262    2.6773854    1574.6691    956.95327 
 1345000    306.23076   -10212.155            0   -10154.482   -1046.2391    32.696226    33.589734     33.45262    2.7348106    1575.8898     955.6601 
 1346000    295.89628   -10213.374            0   -10157.648   -1181.5938    32.696226    33.589734     33.45262    2.7541378    1577.1364    954.38268 
 1347000    290.86473   -10213.917            0   -10159.137   -1171.6354    32.696226    33.589734     33.45262    2.1569749    1578.3879    953.10836 
 1348000    303.63409   -10217.031            0   -10159.847   -1753.8877    32.696226    33.589734     33.45262    1.9270357    1579.6437    951.83661 
 1349000    298.03739   -10212.147            0   -10156.017   -1838.4984    32.696226    33.589734     33.45262    3.1246938    1580.9505    950.59552 
 1350000    294.69081   -10214.799            0   -10159.299   -980.39391    32.696226    33.589734     33.45262    2.4709885    1582.2839    949.37032 
 1351000    293.66281   -10215.232            0   -10159.925   -711.00326    32.696226    33.589734     33.45262    2.4126108      1583.66    948.17056 
 1352000    293.26291   -10212.416            0   -10157.185   -428.13791    32.696226    33.589734     33.45262    2.3545913    1584.9765    946.93486 
 1353000    304.54354    -10214.51            0   -10157.155   -1483.6668    32.696226    33.589734     33.45262    2.1451516     1586.284    945.69368 
 1354000    296.75294   -10216.074            0   -10160.186   -1008.3444    32.696226    33.589734     33.45262    2.4787266    1587.6212       944.47 
 1355000    314.32056   -10215.725            0   -10156.528   -1693.0473    32.696226    33.589734     33.45262    2.4514336    1588.9311    943.22999 
 1356000    300.14339   -10214.559            0   -10158.032   -523.88167    32.696226    33.589734     33.45262    2.2988994    1590.2175    941.97595 
 1357000    304.39959   -10215.191            0   -10157.862   -981.00259    32.696226    33.589734     33.45262    2.4438705    1591.4227    940.67387 
 1358000     311.9281   -10215.485            0   -10156.739   -1478.5539    32.696226    33.589734     33.45262    2.4067928    1592.6455    939.38233 
 1359000    302.33026    -10215.06            0   -10158.122   -990.91501    32.696226    33.589734     33.45262    2.3086415    1593.8674    938.09032 
 1360000    299.71814   -10216.687            0   -10160.241   -2218.4846    32.696226    33.589734     33.45262    2.3269564    1595.1136    936.81277 
 1361000    300.01551   -10212.603            0     -10156.1   -2189.8139    32.696226    33.589734     33.45262    2.4458177    1596.3387    935.52285 
 1362000    297.30235    -10214.74            0   -10158.749   -2271.6569    32.696226    33.589734     33.45262    2.5471865    1597.6219      934.267 
 1363000     305.2854   -10213.814            0   -10156.319   -1259.2534    32.696226    33.589734     33.45262    2.7804463    1598.8413    932.97388 
 1364000    304.08476   -10213.804            0   -10156.535   -741.31589    32.696226    33.589734     33.45262    2.7424011    1600.0387    931.66813 
 1365000    304.34594   -10216.203            0   -10158.885   -1517.8421    32.696226    33.589734     33.45262    2.3968701    1601.2748    930.38494 
 1366000    304.09928   -10212.349            0   -10155.078   -2385.5422    32.696226    33.589734     33.45262    2.4437645     1602.511    929.10195 
 1367000    306.98228   -10213.854            0   -10156.039   -1680.3963    32.696226    33.589734     33.45262    2.4081517    1603.7903    927.84398 
 1368000    301.12742   -10215.151            0   -10158.439   -2318.6015    32.696226    33.589734     33.45262    1.9583934    1605.1069    926.60746 
 1369000    297.75241   -10214.567            0   -10158.491   -933.95998    32.696226    33.589734     33.45262    2.5980317    1606.4424    925.38172 
 1370000    301.51664   -10212.076            0   -10155.291   -1465.9102    32.696226    33.589734     33.45262    3.0819976    1607.6655     924.0912 
 1371000    293.33571   -10214.729            0   -10159.485   -1449.8083    32.696226    33.589734     33.45262    2.6508693    1608.9345    922.82712 
 1372000     293.4573   -10214.113            0   -10158.846   -671.60399    32.696226    33.589734     33.45262    3.1682959    1610.1686    921.54306 
 1373000    317.04644   -10214.247            0   -10154.537   -1299.5345    32.696226    33.589734     33.45262    2.2600723    1611.4238    920.27109 
 1374000    306.34582   -10214.737            0   -10157.042   -1570.0031    32.696226    33.589734     33.45262     2.103583    1612.7253    919.02557 
 1375000    302.23576   -10216.432            0   -10159.511   -807.72629    32.696226    33.589734     33.45262    2.7749429    1613.9621    917.74316 
 1376000    299.46672    -10214.35            0   -10157.951   -1407.0719    32.696226    33.589734     33.45262    2.5893249    1615.2016    916.46234 
 1377000    306.38223   -10214.019            0   -10156.317   -2334.2339    32.696226    33.589734     33.45262    2.4079608    1616.4704     915.1982 
 1378000    293.23822   -10215.861            0   -10160.635   -2236.7835    32.696226    33.589734     33.45262    2.6442206     1617.697    913.91019 
 1379000    308.49691   -10215.479            0   -10157.379   -1856.9036    32.696226    33.589734     33.45262    2.6698684    1618.9513    912.63793 
 1380000    303.89563   -10214.388            0   -10157.154   -1268.8966    32.696226    33.589734     33.45262    2.5363241    1620.2039    911.36468 
 1381000    298.81185   -10215.161            0   -10158.885    -1505.998    32.696226    33.589734     33.45262    2.6468026     1621.525    910.12994 
 1382000    288.32028   -10217.197            0   -10162.897   -955.95434    32.696226    33.589734     33.45262     2.568909    1622.7954    908.86667 
 1383000    296.76712   -10215.721            0   -10159.831   -1729.1532    32.696226    33.589734     33.45262    2.5828022    1624.1034    907.62445 
 1384000    302.54915   -10215.055            0   -10158.075   -1735.5488    32.696226    33.589734     33.45262    2.4815708    1625.4629    906.41078 
 1385000    304.20508   -10216.382            0    -10159.09   -1781.1644    32.696226    33.589734     33.45262    2.1638136    1626.7866      905.177 
 1386000    290.52331   -10215.755            0    -10161.04   -1594.0029    32.696226    33.589734     33.45262    2.3093733    1628.1023    903.93861 
 1387000      309.706   -10215.389            0   -10157.062   -934.06707    32.696226    33.589734     33.45262    2.4398133    1629.4248    902.70389 
 1388000    306.01429   -10217.455            0   -10159.823   -2411.9599    32.696226    33.589734     33.45262     2.117889     1630.665    901.42352 
 1389000    293.04196   -10213.891            0   -10158.701   -1142.2824    32.696226    33.589734     33.45262    2.1392587    1631.8835    900.13125 
 1390000    304.14841   -10213.963            0   -10156.682   -1377.1248    32.696226    33.589734     33.45262    2.3103441    1633.1002    898.83807 
 1391000    297.23029   -10216.309            0   -10160.331    245.30618    32.696226    33.589734     33.45262    2.1293963    1634.3948    897.58785 
 1392000    302.20194   -10214.314            0     -10157.4   -1273.7268    32.696226    33.589734     33.45262    2.4990115    1635.7553    896.37366 
 1393000    304.37487   -10214.314            0   -10156.991   -1320.4158    32.696226    33.589734     33.45262    2.1561491    1637.0574    895.12727 
 1394000    300.54047   -10215.461            0   -10158.859   -970.51403    32.696226    33.589734     33.45262    3.0765839    1638.3238    893.86134 
 1395000    297.07144   -10215.493            0   -10159.544   -1763.2257    32.696226    33.589734     33.45262    2.2347061    1639.5424    892.56944 
 1396000    303.22585   -10215.731            0   -10158.624   -1600.4433    32.696226    33.589734     33.45262    2.2998642    1640.8358    891.31823 
 1397000    303.61579   -10214.759            0   -10157.578   -485.96575    32.696226    33.589734     33.45262    2.7926075    1642.0664    890.03291 
 1398000    292.79588    -10216.75            0   -10161.607   -1654.6135    32.696226    33.589734     33.45262    2.4324973    1643.3046    888.75177 
 1399000    299.64446   -10215.175            0   -10158.742   -812.56045    32.696226    33.589734     33.45262    2.2520223     1644.563    887.48164 
 1400000    312.49159   -10217.332            0   -10158.479   -2267.4465    32.696226    33.589734     33.45262    2.3165845     1645.794     886.1968 
 1401000    295.49371   -10217.191            0    -10161.54   -1424.6021    32.696226    33.589734     33.45262     2.173013    1647.0345    884.91705 
 1402000    295.65126   -10215.479            0   -10159.798   -1150.2112    32.696226    33.589734     33.45262    2.5012532     1648.334    883.66905 
 1403000     301.2476    -10214.71            0   -10157.975   -863.46556    32.696226    33.589734     33.45262     2.784844    1649.5878    882.39652 
 1404000    301.76138   -10218.108            0   -10161.276   -2007.0094    32.696226    33.589734     33.45262    2.1565209    1650.7837    881.09316 
 1405000    298.72765   -10214.459            0   -10158.199   -654.30444    32.696226    33.589734     33.45262    2.5493116    1652.0189    879.81081 
 1406000    306.20989   -10215.593            0   -10157.923   -1340.1725    32.696226    33.589734     33.45262    2.0051667    1653.2706    878.53737 
 1407000    299.45225   -10217.221            0   -10160.825   -1256.0794    32.696226    33.589734     33.45262    2.0721185    1654.5295    877.26773 
 1408000     304.3542   -10213.458            0   -10156.138   -2079.6808    32.696226    33.589734     33.45262     2.344418    1655.7804     875.9939 
 1409000    298.31152   -10214.795            0   -10158.613   -1976.3275    32.696226    33.589734     33.45262    2.4741329    1657.0106    874.70921 
 1410000    300.95154   -10216.853            0   -10160.175    -1517.912    32.696226    33.589734     33.45262    2.1642385    1658.2094      873.408 
 1411000    298.85466   -10212.096            0   -10155.812   -771.61932    32.696226    33.589734     33.45262    2.7667123    1659.4561    872.13217 
 1412000    300.51713   -10215.574            0   -10158.977   -2748.6517    32.696226    33.589734     33.45262      2.03412    1660.7557    870.88408 
 1413000    297.58579   -10215.649            0   -10159.604   -1739.9016    32.696226    33.589734     33.45262    2.3829905    1662.0264    869.62081 
 1414000    311.57714   -10215.327            0   -10156.647   -2691.3093    32.696226    33.589734     33.45262    2.0576867    1663.3848    868.40334 
 1415000    299.18437   -10213.192            0   -10156.846   -1235.9124    32.696226    33.589734     33.45262    2.1722227    1664.7498    867.18904 
 1416000    304.59898   -10216.936            0    -10159.57   -727.57353    32.696226    33.589734     33.45262    2.7985543     1666.074    865.95338 
 1417000     305.1895   -10217.774            0   -10160.297   -1777.4847    32.696226    33.589734     33.45262    2.4347507    1667.4178     864.7277 
 1418000    311.28969    -10215.89            0   -10157.264   -1186.3278    32.696226    33.589734     33.45262    2.1006595     1668.798    863.52066 
 1419000    302.30644   -10215.556            0   -10158.622   -2244.8993    32.696226    33.589734     33.45262     2.052948    1670.1121    862.27928 
 1420000    299.67638   -10217.079            0    -10160.64   -1075.6244    32.696226    33.589734     33.45262    2.6761512    1671.3221    860.98409 
 1421000    312.89872   -10216.374            0   -10157.445   -1084.7082    32.696226    33.589734     33.45262    2.9979648    1672.5613    859.70413 
 1422000    293.14348   -10216.157            0   -10160.948   -1350.7155    32.696226    33.589734     33.45262    2.3565769    1673.8277    858.43813 
 1423000    292.17272   -10215.288            0   -10160.262    -1899.693    32.696226    33.589734     33.45262    2.1877088    1675.0683     857.1589 
 1424000    303.75966   -10215.053            0   -10157.845   -803.52231    32.696226    33.589734     33.45262    2.7824634    1676.3175    855.88418 
 1425000    288.78288    -10216.25            0   -10161.863   -2055.4774    32.696226    33.589734     33.45262    2.8627118    1677.5884    854.62053 
 1426000    293.03527   -10215.458            0    -10160.27   -722.63322    32.696226    33.589734     33.45262    2.1881408    1678.8572    853.35578 
 1427000    305.31232   -10216.451            0   -10158.951   -1721.8758    32.696226    33.589734     33.45262     2.898756    1680.1167     852.0863 
 1428000    309.14588   -10216.542            0    -10158.32   -2130.3763    32.696226    33.589734     33.45262    2.2702277    1681.3686    850.81303 
 1429000    304.26758   -10218.823            0    -10161.52   -1857.4571    32.696226    33.589734     33.45262    2.2943523    1682.6214    849.54023 
 1430000    294.74117   -10214.487            0   -10158.977    686.23601    32.696226    33.589734     33.45262    2.0415211    1683.8544     848.2575 
 1431000    306.97161   -10215.517            0   -10157.705   -829.67414    32.696226    33.589734     33.45262    2.2638395    1685.0925     846.9774 
 1432000    295.97325   -10216.869            0   -10161.128   -1433.6867    32.696226    33.589734     33.45262    2.5626147    1686.3472    845.70566 
 1433000    296.42233   -10215.104            0   -10159.279   -1002.9481    32.696226    33.589734     33.45262    2.7837406    1687.5497    844.40785 
 1434000     297.5219   -10213.881            0   -10157.848   -1067.6813    32.696226    33.589734     33.45262    2.4664021    1688.7984    843.13326 
 1435000    296.19668   -10216.817            0   -10161.034   -1962.3286    32.696226    33.589734     33.45262    2.7724129    1690.0579    841.86407 
 1436000    297.73928   -10213.303            0   -10157.229   -1339.4455    32.696226    33.589734     33.45262    2.3579829    1691.2979    840.58517 
 1437000    297.01303   -10213.952            0   -10158.015   -1783.2384    32.696226    33.589734     33.45262     2.476611    1692.5706     839.3226 
 1438000     294.3796   -10215.435            0   -10159.994   -1596.1504    32.696226    33.589734     33.45262    2.3236035    1693.8324     838.0546 
 1439000    317.27476    -10214.45            0   -10154.697   -1025.2666    32.696226    33.589734     33.45262    2.3282313    1695.0552    836.76733 
 1440000    304.64603   -10214.285            0    -10156.91   -1978.3962    32.696226    33.589734     33.45262    2.0391022    1696.4006     835.5406 
 1441000    295.77691   -10216.031            0   -10160.327   -1384.1621    32.696226    33.589734     33.45262    2.7362778    1697.7184    834.30008 
 1442000    305.41069   -10214.932            0   -10157.414    -1359.677    32.696226    33.589734     33.45262    2.1004826    1698.9748    833.02937 
 1443000    302.89192   -10213.518            0   -10156.474   -790.31238    32.696226    33.589734     33.45262    2.6147118    1700.2565    831.77104 
 1444000    300.59262   -10215.797            0   -10159.186   -1104.6024    32.696226    33.589734     33.45262    2.4852262    1701.5227    830.50514 
 1445000    298.75348   -10215.454            0   -10159.189    -1065.221    32.696226    33.589734     33.45262     2.453587    1702.8245    829.25652 
 1446000    307.05309   -10212.951            0   -10155.123   -1521.6248    32.696226    33.589734     33.45262    2.0713303    1704.1824    828.03515 
 1447000    300.19156   -10215.089            0   -10158.553   -1657.3999    32.696226    33.589734     33.45262    2.6103987    1705.5669    826.82644 
 1448000    296.82281   -10214.959            0   -10159.058   -1737.3971    32.696226    33.589734     33.45262    2.5275139    1706.9089    825.59688 
 1449000    305.89987   -10213.268            0   -10155.657   -1036.0769    32.696226    33.589734     33.45262    2.1934949    1708.2102    824.34757 
 1450000    305.74472   -10216.318            0   -10158.736    -1175.347    32.696226    33.589734     33.45262    2.5373217    1709.5008    823.09296 
 1451000    295.53186   -10215.157            0   -10159.499   -2232.9433    32.696226    33.589734     33.45262    2.4541936    1710.7873    821.83639 
 1452000    310.19423   -10214.592            0   -10156.172    -2080.833    32.696226    33.589734     33.45262    2.3751811    1712.0301    820.55879 
 1453000    298.90943   -10214.035            0   -10157.741   -1892.3018    32.696226    33.589734     33.45262    2.2428263    1713.2929    819.29084 
 1454000       293.53   -10214.508            0   -10159.227   -1924.2746    32.696226    33.589734     33.45262    2.5524981    1714.5116    818.00183 
 1455000    318.24899   -10216.041            0   -10156.104    -2864.656    32.696226    33.589734     33.45262    2.7220997    1715.7701     816.7319 
 1456000    293.01416   -10214.059            0   -10158.875   -2019.9903    32.696226    33.589734     33.45262    2.4849042    1716.9762    815.43707 
 1457000    291.39524   -10214.859            0    -10159.98   -2190.7953    32.696226    33.589734     33.45262    2.3209234    1718.2047    814.15302 
 1458000    304.41777    -10213.62            0   -10156.289   -1366.7233    32.696226    33.589734     33.45262    2.6701284    1719.4059    812.85608 
 1459000    294.98733   -10216.612            0   -10161.056    -1141.832    32.696226    33.589734     33.45262     2.578628    1720.6701    811.58907 
 1460000    298.76666   -10215.696            0   -10159.428   -452.29963    32.696226    33.589734     33.45262    2.0578855    1721.9148    810.31283 
 1461000    299.35016   -10213.596            0   -10157.219   -1713.4214    32.696226    33.589734     33.45262    2.4044069    1723.1301    809.02287 
 1462000    282.59462   -10215.046            0   -10161.825   -2098.9922    32.696226    33.589734     33.45262    2.4198293    1724.3256    807.72374 
 1463000    302.39744   -10216.493            0   -10159.542   -1632.5247    32.696226    33.589734     33.45262    2.3185086    1725.5374    806.43239 
 1464000    301.40083   -10214.911            0   -10158.147    -1503.158    32.696226    33.589734     33.45262    2.2064424    1726.8522    805.18915 
 1465000     301.7152    -10215.86            0   -10159.037   -2940.2174    32.696226    33.589734     33.45262    2.3226095    1728.2596     803.9889 
 1466000     297.1651   -10215.243            0   -10159.278   -1336.8648    32.696226    33.589734     33.45262     2.750102    1729.5744    802.74536 
 1467000    295.43189    -10216.97            0    -10161.33   -1291.9532    32.696226    33.589734     33.45262    2.8572865    1730.8802    801.49758 
 1468000    311.52355   -10216.265            0   -10157.596   -2753.8637    32.696226    33.589734     33.45262    2.2053509    1732.1609    800.23808 
 1469000    303.33093    -10217.05            0   -10159.923   -1581.4229    32.696226    33.589734     33.45262     2.153968    1733.4086    798.96337 
 1470000    288.70174   -10216.102            0    -10161.73   -2000.3934    32.696226    33.589734     33.45262    2.2891617    1734.6756    797.69756 
 1471000    297.64107   -10214.867            0   -10158.812   -2219.9519    32.696226    33.589734     33.45262    2.2150011    1735.9072    796.41549 
 1472000    299.41046   -10215.197            0   -10158.809    -2276.456    32.696226    33.589734     33.45262    2.2773228    1737.1058    795.11839 
 1473000    287.76471   -10216.173            0   -10161.977    -1914.203    32.696226    33.589734     33.45262    2.6970763    1738.3714    793.85205 
 1474000    299.96741   -10214.388            0   -10157.894   -1951.4419    32.696226    33.589734     33.45262    2.1788374    1739.6497     792.5915 
 1475000     301.4343   -10215.219            0   -10158.449   -1570.0756    32.696226    33.589734     33.45262    2.3326987    1740.9679    791.34906 
 1476000    291.03939   -10217.661            0   -10162.849   -1588.7864    32.696226    33.589734     33.45262    2.1467781    1742.2854    790.10618 
 1477000    300.13889   -10216.649            0   -10160.123   -1949.5858    32.696226    33.589734     33.45262    2.4870021    1743.6324    788.87654 
 1478000    292.55277   -10213.339            0   -10158.242   -1514.5072    32.696226    33.589734     33.45262    2.3825327    1744.9189     787.6194 
 1479000    304.81179   -10214.228            0   -10156.822   -1453.7779    32.696226    33.589734     33.45262    2.2987744    1746.2468    786.38089 
 1480000    291.41804   -10215.162            0   -10160.279   -781.27507    32.696226    33.589734     33.45262    2.2976748     1747.536    785.12487 
 1481000    302.61946   -10216.212            0   -10159.219   -1119.4915    32.696226    33.589734     33.45262     2.058556    1748.8976    783.90125 
 1482000    300.94293    -10213.49            0   -10156.813   -2459.9871    32.696226    33.589734     33.45262    3.8206848    1750.2244    782.66187 
 1483000     300.9865    -10216.42            0   -10159.735   -1479.8039    32.696226    33.589734     33.45262    2.5755668    1751.4432    781.37417 
 1484000    296.48919   -10215.241            0   -10159.403   -1234.0347    32.696226    33.589734     33.45262    2.8899907    1752.6612    780.08618 
 1485000    307.85419   -10214.162            0   -10156.183   -1611.4101    32.696226    33.589734     33.45262    2.3230977    1753.9347      778.823 
 1486000    307.38438   -10217.681            0   -10159.791   -1150.0766    32.696226    33.589734     33.45262    2.0245778     1755.174     777.5446 
 1487000    302.29513    -10215.07            0   -10158.138   -1278.6293    32.696226    33.589734     33.45262    2.2430082    1756.4195    776.26906 
 1488000    308.46161   -10214.343            0    -10156.25   -1922.1745    32.696226    33.589734     33.45262    2.5678138    1757.7576    775.03435 
 1489000    296.42072   -10214.994            0   -10159.169   -1447.3488    32.696226    33.589734     33.45262     2.205226    1759.1249     773.8123 
 1490000    295.90646   -10215.748            0    -10160.02   -582.51502    32.696226    33.589734     33.45262    2.5384575    1760.3809    772.54128 
 1491000    301.71713   -10213.259            0   -10156.436   -975.61542    32.696226    33.589734     33.45262    2.1336905    1761.6342    771.26906 
 1492000    293.76256   -10215.581            0   -10160.256   -1480.7653    32.696226    33.589734     33.45262    2.0401906    1762.8764      769.992 
 1493000    297.30285   -10215.879            0   -10159.887   -1761.8401    32.696226    33.589734     33.45262    2.0347605     1764.125     768.7178 
 1494000    294.01331   -10213.125            0   -10157.753   -1358.8798    32.696226    33.589734     33.45262    2.3828807    1765.3689    767.44158 
 1495000    312.64205   -10213.172            0   -10154.291   -1830.8268    32.696226    33.589734     33.45262    2.0587248    1766.6723    766.19123 
 1496000    299.20938   -10215.376            0   -10159.025   -301.10928    32.696226    33.589734     33.45262    2.3077242     1767.924    764.91841 
 1497000    297.27771    -10216.69            0   -10160.703   -1356.9009    32.696226    33.589734     33.45262    2.1432731    1769.1896    763.65162 
 1498000    309.89271   -10215.151            0   -10156.789   -2156.2468    32.696226    33.589734     33.45262    2.2852176    1770.4573    762.38575 
 1499000    299.98843   -10215.058            0   -10158.561   -1048.4182    32.696226    33.589734     33.45262    3.1983064     1771.667    761.09498 
 1500000    294.36232   -10215.422            0   -10159.985   -2274.9693    32.696226    33.589734     33.45262    2.0573427    1772.9083    759.81783 
 1501000       305.37   -10215.231            0    -10157.72   -1385.5194    32.696226    33.589734     33.45262    3.7255326    1774.1331     758.5337 
 1502000    319.39925    -10214.56            0   -10154.407   -816.49807    32.696226    33.589734     33.45262    2.1078063    1775.4005    757.26781 
 1503000    298.86377   -10215.626            0    -10159.34   -2197.0057    32.696226    33.589734     33.45262    3.0829522    1776.6593     755.9983 
 1504000    300.51628   -10216.867            0   -10160.271   -990.96397    32.696226    33.589734     33.45262    2.2744085    1777.9576    754.74555 
 1505000    305.79583   -10214.019            0   -10156.428    -1835.354    32.696226    33.589734     33.45262    2.0225276    1779.2173    753.47635 
 1506000    291.36512   -10214.948            0   -10160.075   -1358.6251    32.696226    33.589734     33.45262    2.8064543    1780.4584    752.19934 
 1507000    295.47078   -10215.542            0   -10159.895   -1318.2735    32.696226    33.589734     33.45262    2.6256239    1781.7601    750.94793 
 1508000    309.41815   -10215.316            0   -10157.043   -2296.4947    32.696226    33.589734     33.45262    2.2955133    1783.0905    749.70849 
 1509000    308.99773   -10214.874            0   -10156.679   -1089.0716    32.696226    33.589734     33.45262     2.498067     1784.416    748.46691 
 1510000    286.99947   -10214.751            0     -10160.7   -1449.7238    32.696226    33.589734     33.45262     2.388833    1785.7726    747.23819 
 1511000    301.31475   -10214.104            0   -10157.357   -2342.6213    32.696226    33.589734     33.45262    2.6363045    1787.0848    745.99075 
 1512000    313.73415   -10216.493            0   -10157.407   -1123.2483    32.696226    33.589734     33.45262    2.4821836    1788.4984    744.78545 
 1513000    297.08768   -10215.395            0   -10159.444   -1067.0713    32.696226    33.589734     33.45262    2.2639665     1789.885    743.56864 
 1514000    285.60538   -10215.527            0   -10161.739   -1830.9216    32.696226    33.589734     33.45262    2.3748799      1791.27    742.35095 
 1515000    298.82792   -10216.248            0   -10159.969   -1431.3201    32.696226    33.589734     33.45262    2.1291875     1792.522    741.07798 
 1516000    294.84217   -10213.506            0   -10157.978   -68.994402    32.696226    33.589734     33.45262    2.6840312    1793.7673    739.80233 
 1517000    287.64889    -10216.06            0   -10161.886   -2050.4609    32.696226    33.589734     33.45262    2.1529587    1794.9848    738.51529 
 1518000    295.06039   -10215.328            0   -10159.758   -1479.9999    32.696226    33.589734     33.45262    2.0551678    1796.2552    737.25003 
 1519000    304.28765   -10215.763            0   -10158.456   -1479.5191    32.696226    33.589734     33.45262     1.999957    1797.5136    735.97984 
 1520000    301.94126    -10216.08            0   -10159.215   -975.91738    32.696226    33.589734     33.45262    2.4037137    1798.7562    734.70323 
 1521000    294.47651   -10216.681            0   -10161.222   -1446.3081    32.696226    33.589734     33.45262    2.8012635    1800.0152    733.43334 
 1522000    304.62275   -10214.575            0   -10157.205   -2164.7329    32.696226    33.589734     33.45262    2.2281479    1801.2769    732.16459 
 1523000    298.68691   -10216.084            0   -10159.832   -1310.7829    32.696226    33.589734     33.45262    2.2943649    1802.4896    730.87595 
 1524000    291.36444   -10217.729            0   -10162.856   -1242.1969    32.696226    33.589734     33.45262    2.1288711    1803.7293    729.59838 
 1525000     298.6007   -10215.201            0   -10158.965   -1869.2616    32.696226    33.589734     33.45262    2.2078018    1804.9583     728.3165 
 1526000     306.6607   -10215.776            0   -10158.022   -1942.8111    32.696226    33.589734     33.45262    2.2452998    1806.2622    727.06489 
 1527000    280.98422   -10214.753            0   -10161.834    -1083.041    32.696226    33.589734     33.45262    2.1188864    1807.5153    725.79277 
 1528000    300.21102   -10213.814            0   -10157.274   -717.19123    32.696226    33.589734     33.45262    2.2360845    1808.7547    724.51518 
 1529000    304.40821   -10216.303            0   -10158.973   -2431.5702    32.696226    33.589734     33.45262     2.412614    1809.9556     723.2223 
 1530000    297.30743   -10216.261            0   -10160.269   -2851.5071    32.696226    33.589734     33.45262    2.6858624    1811.2065    721.94945 
 1531000    306.66563   -10214.273            0   -10156.518    -2588.167    32.696226    33.589734     33.45262    2.6503637    1812.4548     720.6756 
 1532000    298.55906   -10215.901            0   -10159.672   -1604.5951    32.696226    33.589734     33.45262    2.2060521    1813.6948    719.39851 
 1533000    298.25668   -10215.658            0   -10159.487   -1898.9403    32.696226    33.589734     33.45262    2.0479519    1814.9321    718.12037 
 1534000    297.51641   -10211.701            0   -10155.669   -1503.6069    32.696226    33.589734     33.45262    2.7264516    1816.1353    716.82884 
 1535000    295.99717    -10215.35            0   -10159.604   -2590.8647    32.696226    33.589734     33.45262     1.847188    1817.4321    715.57431 
 1536000     294.9464   -10214.855            0   -10159.307   -2441.4363    32.696226    33.589734     33.45262    2.3696602     1818.648    714.28793 
 1537000    326.21447   -10217.051            0   -10155.615   -1615.9244    32.696226    33.589734     33.45262    2.4948226    1819.8974    713.01477 
 1538000    295.08172   -10215.294            0   -10159.721   -2199.1618    32.696226    33.589734     33.45262    2.5213439    1821.2505    711.78217 
 1539000    297.33798   -10214.699            0   -10158.701   -1644.8729    32.696226    33.589734     33.45262    2.9815206    1822.6603    710.57153 
 1540000    311.09546   -10214.183            0   -10155.594   -2739.3196    32.696226    33.589734     33.45262    2.5479647    1824.0335    709.34636 
 1541000    301.59308   -10216.336            0   -10159.536    -2097.309    32.696226    33.589734     33.45262    2.1930311      1825.39    708.11451 
 1542000    306.32047   -10217.763            0   -10160.073   -1268.9536    32.696226    33.589734     33.45262    2.0073701    1826.7437    706.88142 
 1543000    315.65154   -10215.356            0   -10155.909    -444.0743    32.696226    33.589734     33.45262    2.3919009    1828.0825    705.64238 
 1544000    292.19539   -10213.997            0   -10158.967   -1537.2166    32.696226    33.589734     33.45262    2.1356714    1829.4412    704.41087 
 1545000    289.07199   -10213.381            0   -10158.939   -1379.8368    32.696226    33.589734     33.45262    2.7661008    1830.6669     703.1281 
 1546000    308.52436   -10215.424            0   -10157.319   -1644.3293    32.696226    33.589734     33.45262    2.5588564    1831.8924    701.84537 
 1547000    304.72672   -10216.314            0   -10158.924   -1713.1092    32.696226    33.589734     33.45262    2.3862374    1833.1113    700.56015 
 1548000    301.72133   -10217.737            0   -10160.914   -2754.3456    32.696226    33.589734     33.45262    2.6318227    1834.3155    699.26944 
 1549000    298.26258    -10212.88            0   -10156.708   -2210.6568    32.696226    33.589734     33.45262    2.4408958    1835.5458    697.98879 
 1550000     299.3181   -10215.157            0   -10158.786   -2797.8443    32.696226    33.589734     33.45262    2.2121132    1836.7957    696.71561 
 1551000    297.11052   -10216.139            0   -10160.183   -2202.7655    32.696226    33.589734     33.45262    2.4899446    1838.0122    695.42985 
 1552000    298.93659   -10212.307            0   -10156.007   -1178.9102    32.696226    33.589734     33.45262    2.5593628    1839.2481     694.1515 
 1553000    304.08571   -10216.973            0   -10159.704   -1348.0994    32.696226    33.589734     33.45262    2.6837807    1840.4526    692.86137 
 1554000    304.51467   -10216.488            0   -10159.138   -1279.2195    32.696226    33.589734     33.45262    2.5668727    1841.6707    691.57647 
 1555000    305.80084   -10214.869            0   -10157.277   -778.52547    32.696226    33.589734     33.45262    3.1794388    1842.8885    690.29156 
 1556000    310.09152   -10214.839            0   -10156.439    -1570.851    32.696226    33.589734     33.45262    2.2942059    1844.1073    689.00713 
 1557000    288.38134   -10214.685            0   -10160.373   -1736.2595    32.696226    33.589734     33.45262    2.4254297    1845.3563    687.73401 
 1558000    307.74199   -10216.211            0   -10158.254   -2339.2029    32.696226    33.589734     33.45262    2.7867596    1846.5817     686.4522 
 1559000    304.00211   -10214.214            0    -10156.96   -1224.8374    32.696226    33.589734     33.45262    2.1915299    1847.8335    685.18022 
 1560000    297.85631    -10215.42            0   -10159.324   -1407.2703    32.696226    33.589734     33.45262    2.1917804      1849.05    683.89522 
 1561000    308.40097   -10216.609            0   -10158.527   -860.14237    32.696226    33.589734     33.45262    2.4190665    1850.2885    682.61842 
 1562000    310.40423   -10214.247            0   -10155.788   -991.36841    32.696226    33.589734     33.45262    1.8541584     1851.597    681.36741 
 1563000     295.8023   -10215.756            0   -10160.047    -1723.939    32.696226    33.589734     33.45262    2.6754545    1852.9559    680.13488 
 1564000    299.97992   -10215.204            0   -10158.708   -1715.9653    32.696226    33.589734     33.45262    2.2120343    1854.2739    678.88715 
 1565000      312.226   -10213.888            0   -10155.086   -632.07884    32.696226    33.589734     33.45262    2.8467278     1855.535    677.61858 
 1566000    296.98263   -10213.573            0   -10157.641   -2284.0459    32.696226    33.589734     33.45262    2.4355536    1856.7452    676.33147 
 1567000    294.74655   -10215.617            0   -10160.107   -1865.5574    32.696226    33.589734     33.45262    2.2904573    1857.9892    675.05675 
 1568000    306.92865   -10214.487            0   -10156.683   -1789.8031    32.696226    33.589734     33.45262    2.2328557    1859.2121    673.77441 
 1569000    310.05845   -10216.244            0    -10157.85   -963.34508    32.696226    33.589734     33.45262    2.2316674    1860.4725     672.5057 
 1570000    303.33261   -10216.228            0     -10159.1   -1201.5879    32.696226    33.589734     33.45262    2.1849053    1861.7551    671.24504 
 1571000    306.78273   -10216.227            0    -10158.45   -1471.6307    32.696226    33.589734     33.45262    2.9388387    1863.0454    669.98709 
 1572000    300.45066   -10215.902            0   -10159.318   -1486.1855    32.696226    33.589734     33.45262    2.0707498    1864.4222    668.76013 
 1573000    299.80816   -10216.473            0   -10160.009   -811.75767    32.696226    33.589734     33.45262    2.7795254    1865.7632    667.52016 
 1574000     303.0108   -10213.226            0    -10156.16   -665.74692    32.696226    33.589734     33.45262    2.5753775    1867.0999    666.27852 
 1575000    291.80192   -10214.795            0    -10159.84   -1106.3666    32.696226    33.589734     33.45262    2.1066687    1868.4399    665.03792 
 1576000     293.4492   -10214.989            0   -10159.723   -980.93029    32.696226    33.589734     33.45262      2.60567    1869.7394    663.78284 
 1577000    305.40888   -10214.512            0   -10156.994   -1352.7899    32.696226    33.589734     33.45262    2.2696397     1870.989    662.50997 
 1578000     293.3242   -10215.179            0   -10159.936   -1211.7702    32.696226    33.589734     33.45262    2.5849955    1872.2155    661.22903 
 1579000    295.13728   -10215.095            0   -10159.511   -2095.3585    32.696226    33.589734     33.45262    2.5125313    1873.4843    659.96305 
 1580000    299.13791   -10213.463            0   -10157.126   -2286.2642    32.696226    33.589734     33.45262    2.0994695    1874.7671    658.70194 
 1581000    301.41469   -10215.275            0   -10158.509   -1721.9707    32.696226    33.589734     33.45262    2.4400796    1876.0557    657.44287 
 1582000     292.7624   -10215.727            0    -10160.59   -2845.9166    32.696226    33.589734     33.45262    2.0234169    1877.2931    656.16588 
 1583000    294.63685   -10216.867            0   -10161.377    -2323.928    32.696226    33.589734     33.45262    2.3306974    1878.5273    654.88781 
 1584000    307.75927   -10216.112            0   -10158.151   -1911.7401    32.696226    33.589734     33.45262    2.3206104    1879.7904    653.61983 
 1585000    302.81086   -10216.707            0   -10159.678   -2035.6678    32.696226    33.589734     33.45262    2.0146976    1881.0054    652.33519 
 1586000    290.65194   -10215.844            0   -10161.105   -1408.5343    32.696226    33.589734     33.45262    2.6303053    1882.2637    651.06563 
 1587000    299.05745   -10214.736            0   -10158.414   -1603.9498    32.696226    33.589734     33.45262     2.694026    1883.5208    649.79568 
 1588000    305.09972    -10216.55            0    -10159.09   -762.78254    32.696226    33.589734     33.45262    2.1548476    1884.7726    648.52389 
 1589000    286.23144   -10216.325            0   -10162.419   -1926.8013    32.696226    33.589734     33.45262    2.1356313    1886.0526    647.26185 
 1590000    311.89523   -10216.756            0   -10158.016   -1397.1384    32.696226    33.589734     33.45262    2.8769884     1887.456    646.04198 
 1591000    297.59868    -10214.88            0   -10158.832   -1267.5594    32.696226    33.589734     33.45262    2.3710229    1888.7131    644.77195 
 1592000    288.64679   -10216.435            0   -10162.074   -1681.3919    32.696226    33.589734     33.45262    2.1574981    1889.9784    643.50471 
 1593000    295.92788   -10213.784            0   -10158.052   -1566.3562    32.696226    33.589734     33.45262    2.2310396    1891.2001    642.22268 
 1594000    294.87228   -10213.897            0   -10158.363   -1462.1767    32.696226    33.589734     33.45262    2.7192127    1892.4308    640.94375 
 1595000     294.6235   -10217.497            0    -10162.01   -1416.1441    32.696226    33.589734     33.45262    2.4173434     1893.667    639.66679 
 1596000    303.68949   -10214.458            0   -10157.263   -1372.6589    32.696226    33.589734     33.45262    2.4305801    1894.9418    638.40284 
 1597000     303.2552    -10215.81            0   -10158.698   -500.84834    32.696226    33.589734     33.45262    2.2448518    1896.2421    637.14748 
 1598000    294.02184   -10216.136            0   -10160.763   -2262.4532    32.696226    33.589734     33.45262    2.3861041     1897.519    635.88421 
 1599000    306.97135   -10214.099            0   -10156.286   -1606.1417    32.696226    33.589734     33.45262    2.3138523    1898.7736    634.61345 
 1600000    294.55291   -10215.239            0   -10159.765   -1572.6048    32.696226    33.589734     33.45262    1.9789452    1899.9975     633.3325 
 1601000    291.70164    -10214.53            0   -10159.593   -1648.4737    32.696226    33.589734     33.45262    2.4464892     1901.294    632.07575 
 1602000    307.73358   -10216.726            0    -10158.77   -1769.2797    32.696226    33.589734     33.45262    2.6997826    1902.5716     630.8127 
 1603000    295.90826   -10213.581            0   -10157.852   -2258.4952    32.696226    33.589734     33.45262    2.4442876    1903.8978    629.56567 
 1604000    311.76872   -10214.822            0   -10156.106   -1242.2068    32.696226    33.589734     33.45262    2.5120475    1905.1849    628.30565 
 1605000    297.46697   -10215.953            0   -10159.931   -1853.3473    32.696226    33.589734     33.45262    2.4869893    1906.5483    627.07072 
 1606000    300.27309   -10214.915            0   -10158.364   -2765.3855    32.696226    33.589734     33.45262    2.2910642    1907.8627    625.81951 
 1607000    304.41737   -10212.873            0   -10155.542   -674.36824    32.696226    33.589734     33.45262    2.1465173    1909.1874    624.57158 
 1608000    306.68801   -10216.434            0   -10158.675   -1086.6625    32.696226    33.589734     33.45262    2.7505225    1910.4424    623.30085 
 1609000    294.98725   -10215.619            0   -10160.064   -1951.5968    32.696226    33.589734     33.45262    2.5759707    1911.6516    622.01521 
 1610000    293.95889   -10215.527            0   -10160.165   -1027.1781    32.696226    33.589734     33.45262    2.2893487    1912.8706    620.73284 
 1611000    307.35407   -10214.887            0   -10157.002   -1324.8835    32.696226    33.589734     33.45262    2.7830884     1914.141     619.4672 
 1612000    300.71248   -10217.949            0   -10161.315   -1677.7692    32.696226    33.589734     33.45262    2.2498883    1915.3667    618.18715 
 1613000    305.01424   -10216.882            0   -10159.438   -1461.1767    32.696226    33.589734     33.45262    2.5496228    1916.6409    616.92275 
 1614000    304.60956    -10215.49            0   -10158.122    -2058.451    32.696226    33.589734     33.45262    2.1376846    1917.9561    615.67152 
 1615000    286.09556   -10216.578            0   -10162.697   -2466.8497    32.696226    33.589734     33.45262     2.472899      1919.27    614.41976 
 1616000    301.01791   -10216.782            0   -10160.091   -1418.6147    32.696226    33.589734     33.45262    2.5513047     1920.534    613.15203 
 1617000    303.14476   -10215.006            0   -10157.914   -2413.0127    32.696226    33.589734     33.45262    2.1032147    1921.7825    611.87933 
 1618000    298.03282   -10213.827            0   -10157.698   -2316.0384    32.696226    33.589734     33.45262    2.6531524    1923.0015    610.59731 
 1619000    297.35659   -10216.907            0   -10160.905   -2166.4456    32.696226    33.589734     33.45262    2.3756293    1924.2683    609.33053 
 1620000    310.65996   -10215.125            0   -10156.617   -1303.9438    32.696226    33.589734     33.45262    2.5543623    1925.5424    608.06601 
 1621000    293.46663   -10213.189            0    -10157.92   -1252.7709    32.696226    33.589734     33.45262    2.1874815    1926.7869    606.79219 
 1622000    291.67055   -10214.339            0   -10159.408   -2297.9995    32.696226    33.589734     33.45262    2.2018423    1928.0209    605.51511 
 1623000    297.25585   -10215.066            0   -10159.084   -2851.4358    32.696226    33.589734     33.45262    2.2340684    1929.2347    604.23176 
 1624000    293.88191   -10214.044            0   -10158.696   -1867.8286    32.696226    33.589734     33.45262    2.7838117    1930.4898    602.96137 
 1625000     303.7041   -10214.704            0   -10157.507    -1429.889    32.696226    33.589734     33.45262    2.4950169    1931.7356    601.68813 
 1626000     295.7008   -10215.552            0   -10159.862   -1760.1881    32.696226    33.589734     33.45262    2.8384382    1932.9717    600.41193 
 1627000    292.77054   -10214.886            0   -10159.748   -1768.4015    32.696226    33.589734     33.45262     2.443149    1934.2154     599.1381 
 1628000    308.30149   -10214.676            0   -10156.613   -1309.2195    32.696226    33.589734     33.45262    2.4674313    1935.4369    597.85746 
 1629000    299.51075   -10216.222            0   -10159.814   -2545.7506    32.696226    33.589734     33.45262    1.9218582    1936.6904    596.58677 
 1630000    301.69238   -10216.176            0   -10159.357   -2619.7586    32.696226    33.589734     33.45262    2.3517365    1937.9349    595.31334 
 1631000    302.06351   -10215.114            0   -10158.226    -2021.908    32.696226    33.589734     33.45262    2.4153447    1939.1576    594.03324 
 1632000    308.92471   -10212.635            0   -10154.455   -1790.3402    32.696226    33.589734     33.45262    2.3844289     1940.413    592.76324 
 1633000    305.53562   -10216.647            0   -10159.104   -1774.8767    32.696226    33.589734     33.45262    2.2327477    1941.6946    591.50122 
 1634000     297.0491   -10215.096            0   -10159.152   -2020.7006    32.696226    33.589734     33.45262    2.5323174    1943.0229    590.25337 
 1635000    316.54817   -10215.135            0   -10155.519   -2673.2915    32.696226    33.589734     33.45262    1.9832482    1944.3834    589.01517 
 1636000    297.33681    -10215.82            0   -10159.822   -1854.3554    32.696226    33.589734     33.45262     2.298936    1945.7382    587.77507 
 1637000    298.50574   -10215.555            0   -10159.337   -1395.0836    32.696226    33.589734     33.45262    2.4949578    1947.0692    586.52769 
 1638000    294.90614   -10211.787            0   -10156.247   -1459.8267    32.696226    33.589734     33.45262    2.5601878    1948.3804    585.27423 
 1639000    300.12404   -10215.076            0   -10158.553   -1858.8008    32.696226    33.589734     33.45262    2.4454175    1949.7365    584.03412 
 1640000    293.56228   -10215.571            0   -10160.284   -1588.5596    32.696226    33.589734     33.45262    2.4438494    1951.0077    582.76854 
 1641000    309.79308   -10214.667            0   -10156.323     -1213.14    32.696226    33.589734     33.45262    2.1981691    1952.2957    581.50793 
 1642000    287.03006   -10214.857            0     -10160.8   -1549.6932    32.696226    33.589734     33.45262    1.9225189    1953.5232    580.22932 
 1643000     292.7103   -10214.237            0    -10159.11   -1010.6596    32.696226    33.589734     33.45262    2.2119746    1954.7983    578.96489 
 1644000    303.09568    -10213.95            0   -10156.868   -2258.1617    32.696226    33.589734     33.45262     2.989154    1956.0465    577.69248 
 1645000    294.72672   -10216.862            0   -10161.356   -2187.5951    32.696226    33.589734     33.45262    2.0689492     1957.284    576.41697 
 1646000    300.04175   -10215.542            0   -10159.035   -1525.8543    32.696226    33.589734     33.45262    2.6096492    1958.4993    575.13497 
 1647000    296.28801   -10213.986            0   -10158.186   -1581.7788    32.696226    33.589734     33.45262    2.5178104    1959.7546    573.86479 
 1648000    300.27117    -10216.58            0    -10160.03   -2742.9613    32.696226    33.589734     33.45262     2.285706    1960.9708    572.58321 
 1649000    283.89745   -10216.683            0   -10163.216   -1649.4992    32.696226    33.589734     33.45262    2.3010773    1962.2137    571.30946 
 1650000    302.93477   -10215.871            0   -10158.818   -1457.2737    32.696226    33.589734     33.45262    2.7133557    1963.4581    570.03621 
 1651000    300.50167   -10214.859            0   -10158.265   -1462.9366    32.696226    33.589734     33.45262     2.819605    1964.7091    568.76491 
 1652000    299.66689   -10217.582            0   -10161.145   -1590.3123    32.696226    33.589734     33.45262    2.1230682    1965.9656    567.49522 
 1653000    297.31037   -10214.392            0   -10158.399   -2278.3953    32.696226    33.589734     33.45262    2.0666142    1967.1753    566.21207 
 1654000    302.45697   -10214.793            0   -10157.831   -1420.7522    32.696226    33.589734     33.45262    2.0830157    1968.4008    564.93356 
 1655000    300.53799   -10217.019            0   -10160.418    -1788.305    32.696226    33.589734     33.45262    2.2709116    1969.6457    563.66066 
 1656000    288.20028    -10217.07            0   -10162.792   -2594.1511    32.696226    33.589734     33.45262    2.1231642    1970.8794    562.38462 
 1657000    305.97869   -10215.991            0   -10158.366   -1283.2135    32.696226    33.589734     33.45262    2.7386733    1972.0901    561.10208 
 1658000    300.80724   -10215.087            0   -10158.436   -2074.1593    32.696226    33.589734     33.45262    2.8198574    1973.3097    559.82214 
 1659000    292.40108   -10217.077            0   -10162.008   -2450.0729    32.696226    33.589734     33.45262    2.0155885    1974.5581    558.55044 
 1660000    302.20676   -10214.944            0   -10158.029    -645.7827    32.696226    33.589734     33.45262     2.410532    1975.7923    557.27475 
 1661000    304.79922   -10216.453            0    -10159.05   -1868.9676    32.696226    33.589734     33.45262    2.6286384    1976.9993    555.99147 
 1662000    294.77328   -10216.966            0   -10161.451   -1780.3407    32.696226    33.589734     33.45262    2.2887964    1978.2482    554.72003 
 1663000    299.26738   -10214.212            0    -10157.85   -2387.8705    32.696226    33.589734     33.45262    2.5076682    1979.6073    553.47947 
 1664000    305.87902   -10215.958            0   -10158.351   -1947.5901    32.696226    33.589734     33.45262    2.7421796    1981.0111    552.25117 
 1665000    296.77117   -10217.422            0    -10161.53   -2164.5049    32.696226    33.589734     33.45262    2.3468824    1982.2583    550.97914 
 1666000    291.87608   -10214.559            0    -10159.59   -2429.5626    32.696226    33.589734     33.45262    2.3789439    1983.6064     549.7351 
 1667000    304.68603   -10214.491            0   -10157.109   -1504.3207    32.696226    33.589734     33.45262    1.7118184    1984.9136    548.47962 
 1668000    306.59046   -10215.501            0    -10157.76   -1361.4076    32.696226    33.589734     33.45262    1.9971316    1986.2462    547.23109 
 1669000     299.4566   -10217.056            0   -10160.659    -1295.482    32.696226    33.589734     33.45262    2.3781607    1987.5688    545.97969 
 1670000    307.92566   -10214.541            0   -10156.549   -2308.9401    32.696226    33.589734     33.45262    1.9716273    1988.8837     544.7261 
 1671000    297.55184   -10213.474            0   -10157.435   -2044.4085    32.696226    33.589734     33.45262    2.7031704    1990.1878    543.46948 
 1672000    303.01877    -10216.01            0   -10158.941   -637.99231    32.696226    33.589734     33.45262    2.7286748    1991.4486    542.20101 
 1673000    288.53935    -10216.02            0   -10161.679   -1427.7416    32.696226    33.589734     33.45262    2.3352417    1992.7263    540.93714 
 1674000    298.35164   -10215.412            0   -10159.222   -1887.3972    32.696226    33.589734     33.45262    2.6853943    1994.0188    539.67727 
 1675000    301.87652   -10214.674            0   -10157.821    -461.9395    32.696226    33.589734     33.45262    2.7510022    1995.2802    538.40896 
 1676000    289.26082   -10215.778            0   -10161.301   -2040.7294    32.696226    33.589734     33.45262     2.635424     1996.481    537.12433 
 1677000    296.23242    -10215.64            0   -10159.849    -2119.894    32.696226    33.589734     33.45262    2.7201856    1997.7143    535.84854 
 1678000    307.90207   -10216.202            0   -10158.214   -2647.7406    32.696226    33.589734     33.45262    2.5309876    1998.9483      534.573 
 1679000    300.84121   -10216.959            0   -10160.301   -2756.4507    32.696226    33.589734     33.45262    2.3488344    2000.1906    533.29971 
 1680000    299.39479   -10216.748            0   -10160.363   -1029.3843    32.696226    33.589734     33.45262    2.3015389    2001.4617    532.03411 
 1681000    304.43484   -10214.064            0   -10156.729   -2290.9998    32.696226    33.589734     33.45262    2.1600496    2002.7457    530.77195 
 1682000    297.63557   -10216.455            0   -10160.401   -1432.7655    32.696226    33.589734     33.45262    2.1241857    2004.0586    529.51739 
 1683000    296.48625   -10216.207            0   -10160.369   -2406.2814    32.696226    33.589734     33.45262     2.306912    2005.2818    528.23912 
 1684000    312.69365   -10216.461            0   -10157.571   -1904.9218    32.696226    33.589734     33.45262    2.6186762    2006.5315    526.96787 
 1685000    299.35528   -10217.321            0   -10160.943   -2503.7618    32.696226    33.589734     33.45262    2.2159396    2007.7728    525.69445 
 1686000    297.75791   -10216.459            0   -10160.382   -1336.4375    32.696226    33.589734     33.45262    2.1571913    2009.0688    524.43536 
 1687000    301.25569    -10215.03            0   -10158.294   -2928.5863    32.696226    33.589734     33.45262    2.8052695     2010.448    523.19788 
 1688000     302.7954   -10216.144            0   -10159.118   -1070.8522    32.696226    33.589734     33.45262     3.200878    2011.6805    521.92214 
 1689000    296.70181   -10218.143            0   -10162.264    -2245.729    32.696226    33.589734     33.45262    2.2768966    2012.9505    520.65616 
 1690000     294.0932   -10214.095            0   -10158.708   -2127.2891    32.696226    33.589734     33.45262    2.7384338    2014.1643    519.37571 
 1691000    304.84639   -10215.323            0   -10157.911   -1315.1129    32.696226    33.589734     33.45262    2.8099779    2015.4367    518.11038 
 1692000    294.51241   -10216.377            0   -10160.911   -2249.9478    32.696226    33.589734     33.45262    2.4776553    2016.7193    516.84765 
 1693000    299.92968   -10215.195            0   -10158.708    -702.0229    32.696226    33.589734     33.45262     2.238327    2017.9934    515.58275 
 1694000    307.23816   -10215.618            0   -10157.755   -1519.0146    32.696226    33.589734     33.45262    1.9034564    2019.2459    514.31231 
 1695000    305.20074   -10217.361            0   -10159.882   -1601.7092    32.696226    33.589734     33.45262     2.412927    2020.5583    513.05711 
 1696000    296.59524   -10215.452            0   -10159.593   -1312.8154    32.696226    33.589734     33.45262    2.6372032    2021.8649    511.80039 
 1697000      303.598    -10214.49            0   -10157.313   -1080.0793    32.696226    33.589734     33.45262    2.5454589    2023.1857    510.54718 
 1698000    311.14256   -10218.541            0   -10159.943    -1787.555    32.696226    33.589734     33.45262    2.2599803     2024.481    509.28747 
 1699000    294.33874   -10215.917            0   -10160.484   -1683.9289    32.696226    33.589734     33.45262    2.7363274    2025.8151    508.03742 
 1700000    299.00429   -10214.782            0    -10158.47   -1268.6579    32.696226    33.589734     33.45262    2.4752194    2027.1384     506.7846 
 1701000    299.13496   -10215.839            0   -10159.502   -2267.0182    32.696226    33.589734     33.45262    2.3235337    2028.4584    505.53086 
 1702000    288.08986   -10216.007            0   -10161.751    -1225.125    32.696226    33.589734     33.45262    2.2814106    2029.7648    504.27366 
 1703000    302.48048    -10215.46            0   -10158.494   -1564.6949    32.696226    33.589734     33.45262    2.0412892    2031.0394     503.0085 
 1704000    311.51513   -10217.111            0   -10158.443   -2255.9352    32.696226    33.589734     33.45262    2.4649508    2032.2727    501.73317 
 1705000     283.4696   -10216.691            0   -10163.305   -2173.8706    32.696226    33.589734     33.45262    1.9875865    2033.4831    500.45223 
 1706000    293.85825   -10216.054            0   -10160.711   -1791.5523    32.696226    33.589734     33.45262    2.1049287    2034.7193     499.1777 
 1707000    298.57988   -10213.661            0   -10157.428   -1563.7231    32.696226    33.589734     33.45262    2.5917322    2035.9215    497.89493 
 1708000    295.82866   -10215.471            0   -10159.757   -2676.0707    32.696226    33.589734     33.45262    2.8082215    2037.1069    496.60816 
 1709000     296.2825   -10216.687            0   -10160.887   -2724.5071    32.696226    33.589734     33.45262    2.1381856    2038.3238    495.32916 
 1710000    299.28216   -10214.806            0   -10158.442   -1590.5322    32.696226    33.589734     33.45262    2.1487371    2039.5562    494.05398 
 1711000    300.97175   -10215.763            0    -10159.08   -1914.0534    32.696226    33.589734     33.45262    2.4777208     2040.791    492.77946 
 1712000    296.13632   -10218.895            0   -10163.123    -2768.454    32.696226    33.589734     33.45262    2.1729239    2042.1417    491.53286 
 1713000    298.61583   -10215.664            0   -10159.425   -1739.0749    32.696226    33.589734     33.45262    2.3755799    2043.4892    490.28539 
 1714000    297.02097   -10214.425            0   -10158.486   -1809.1083    32.696226    33.589734     33.45262    2.3492648    2044.7585    489.01908 
 1715000     293.9973   -10216.672            0   -10161.302   -1574.4592    32.696226    33.589734     33.45262    2.1946065    2046.0387    487.75536 
 1716000    302.81412    -10216.42            0    -10159.39   -1868.2381    32.696226    33.589734     33.45262    2.4221404    2047.2608    486.47781 
 1717000    303.40685   -10214.878            0   -10157.736   -1412.1484    32.696226    33.589734     33.45262    2.4391332    2048.5141    485.20774 
 1718000    285.93069   -10214.929            0   -10161.079   -1817.3594    32.696226    33.589734     33.45262     2.353028    2049.8081    483.94727 
 1719000    295.99767   -10218.404            0   -10162.658   -1509.5298    32.696226    33.589734     33.45262    2.7803069     2051.034    482.67076 
 1720000    299.85113   -10214.461            0   -10157.989   -1715.0669    32.696226    33.589734     33.45262     2.112137    2052.3091    481.40584 
 1721000    303.97886   -10216.338            0   -10159.089   -1746.2683    32.696226    33.589734     33.45262    2.6110129    2053.5769    480.13921 
 1722000    297.34578   -10217.688            0   -10161.688   -2789.1693    32.696226    33.589734     33.45262    2.7522153    2054.7928    478.86046 
 1723000    297.21156   -10213.023            0   -10157.048   -2930.5935    32.696226    33.589734     33.45262    2.2774667    2055.9849    477.57628 
 1724000    300.49889   -10216.186            0   -10159.592   -1659.7835    32.696226    33.589734     33.45262    2.6498978    2057.2096    476.29976 
 1725000    292.19192   -10216.019            0    -10160.99   -2446.5478    32.696226    33.589734     33.45262     2.246645    2058.4762    475.03298 
 1726000    307.19746    -10214.31            0   -10156.455   -1831.6559    32.696226    33.589734     33.45262    2.4681083    2059.7391    473.76533 
 1727000    293.39019   -10215.271            0   -10160.016   -1962.3412    32.696226    33.589734     33.45262    3.1022275    2061.0821    472.51607 
 1728000    303.38986   -10216.236            0   -10159.098   -2591.4533    32.696226    33.589734     33.45262    2.0964899    2062.3747    471.25515 
 1729000    324.50006   -10213.974            0    -10152.86   -1198.3994    32.696226    33.589734     33.45262    2.5254544    2063.6794    469.99697 
 1730000    306.67371   -10214.332            0   -10156.575   -1964.3491    32.696226    33.589734     33.45262     2.158385    2065.0643    468.75693 
 1731000    296.49599   -10215.994            0   -10160.154   -1892.9262    32.696226    33.589734     33.45262    2.4220979    2066.3901    467.50334 
 1732000    297.52906   -10214.779            0   -10158.745   -1455.9947    32.696226    33.589734     33.45262    2.5074103    2067.6838    466.24243 
 1733000    311.15569   -10215.267            0   -10156.667   -1137.6666    32.696226    33.589734     33.45262    2.1644294    2068.9848    464.98312 
 1734000    296.37626   -10215.044            0   -10159.227   -1756.5051    32.696226    33.589734     33.45262    2.6260127    2070.2753    463.72139 
 1735000    288.60934   -10213.358            0   -10159.003   -2466.8322    32.696226    33.589734     33.45262    2.2956978    2071.5362    462.45303 
 1736000    302.36583   -10215.636            0   -10158.691   -2727.2309    32.696226    33.589734     33.45262     2.657015    2072.7685    461.17832 
 1737000    294.40703   -10215.504            0   -10160.057   -2540.4897    32.696226    33.589734     33.45262    2.8383264    2074.1505    459.93685 
 1738000     295.6266   -10216.914            0   -10161.238   -1509.0556    32.696226    33.589734     33.45262    2.7353318    2075.4699    458.68139 
 1739000    306.67572    -10215.55            0   -10157.793   -1225.8001    32.696226    33.589734     33.45262    3.2434187    2076.6762    457.40093 
 1740000    301.45624   -10217.947            0   -10161.173    -2097.175    32.696226    33.589734     33.45262    2.2751701    2077.8641    456.11652 
 1741000    288.27067   -10215.301            0   -10161.011   -1760.2717    32.696226    33.589734     33.45262    2.0710569    2079.1438    454.85229 
 1742000     301.3908   -10215.314            0   -10158.553   -3154.3234    32.696226    33.589734     33.45262    2.7372146      2080.41    453.58512 
 1743000    296.74256   -10214.971            0   -10159.085   -1106.8034    32.696226    33.589734     33.45262    2.1952466    2081.6793    452.31864 
 1744000    292.02936   -10216.704            0   -10161.705   -1587.3379    32.696226    33.589734     33.45262    2.5839325    2082.9239    451.04679 
 1745000     309.4999   -10216.352            0   -10158.063   -887.75002    32.696226    33.589734     33.45262     2.207286    2084.1694    449.77516 
 1746000    301.15124   -10215.564            0   -10158.848   -2220.8958    32.696226    33.589734     33.45262    2.6600401    2085.4207    448.50482 
 1747000    288.87295   -10217.033            0   -10162.629   -2572.0175    32.696226    33.589734     33.45262    2.1742264    2086.6562     447.2311 
 1748000    294.64867   -10214.219            0   -10158.728   -1594.3437    32.696226    33.589734     33.45262    2.1643541    2087.8934    445.95782 
 1749000    311.36473   -10216.541            0   -10157.901   -1695.2911    32.696226    33.589734     33.45262    2.2700877     2089.127     444.6838 
 1750000    291.71431   -10214.819            0    -10159.88   -2135.5611    32.696226    33.589734     33.45262    2.3191593    2090.3647    443.41069 
 1751000    287.32888   -10214.219            0   -10160.106   -1549.2708    32.696226    33.589734     33.45262    2.3557201    2091.6076    442.13873 
 1752000    297.85613   -10213.375            0   -10157.279   -1941.5207    32.696226    33.589734     33.45262    2.5679811    2092.8186    440.86009 
 1753000    297.38903   -10215.963            0   -10159.955   -2079.4701    32.696226    33.589734     33.45262    2.4103802    2094.0921    439.59465 
 1754000    296.26482   -10214.557            0   -10158.761   -1369.2087    32.696226    33.589734     33.45262    2.5085489    2095.3153    438.31868 
 1755000    313.07931   -10215.466            0   -10156.503   -1383.0061    32.696226    33.589734     33.45262    2.0748277    2096.5906    437.05362 
 1756000      298.381   -10216.317            0   -10160.122   -1275.9654    32.696226    33.589734     33.45262    2.7036684    2097.8363    435.78242 
 1757000    294.01418   -10214.136            0   -10158.764    -1280.986    32.696226    33.589734     33.45262    2.9604033    2099.1002    434.51501 
 1758000     299.2531   -10214.716            0   -10158.357   -1572.1335    32.696226    33.589734     33.45262    2.1104534    2100.3879     433.2525 
 1759000    294.30852   -10213.883            0   -10158.455   -1872.8197    32.696226    33.589734     33.45262    2.3106752    2101.6723     431.9893 
 1760000    295.40296   -10216.051            0   -10160.417   -476.17596    32.696226    33.589734     33.45262    2.4947066    2102.9556    430.72584 
 1761000    299.16812   -10214.949            0   -10158.606   -1596.7151    32.696226    33.589734     33.45262    2.8005148    2104.2992    429.47468 
 1762000    307.73468   -10214.828            0   -10156.872   -990.76054    32.696226    33.589734     33.45262    2.5510988     2105.705    428.23604 
 1763000    293.58628   -10216.493            0   -10161.201   -1674.8332    32.696226    33.589734     33.45262    2.2615256     2107.109    426.99684 
 1764000    298.03578   -10215.112            0   -10158.982   -1633.5695    32.696226    33.589734     33.45262    2.1937683    2108.3837    425.73131 
 1765000    302.08177   -10214.414            0   -10157.522   -1664.1771    32.696226    33.589734     33.45262    2.4612281    2109.6779    424.46974 
 1766000    289.93921   -10216.335            0    -10161.73   -2980.2454    32.696226    33.589734     33.45262    2.1245849    2110.9483    423.20332 
 1767000     300.6782   -10215.692            0   -10159.065   -737.97354    32.696226    33.589734     33.45262    2.3077431    2112.1697    421.92712 
 1768000    308.30566   -10216.467            0   -10158.403   -1656.3968    32.696226    33.589734     33.45262    2.4568989    2113.4371    420.66014 
 1769000    303.36269   -10217.229            0   -10160.097   -1467.4751    32.696226    33.589734     33.45262    2.4925185    2114.6723    419.38677 
 1770000    295.32776    -10217.17            0   -10161.551   -1529.8806    32.696226    33.589734     33.45262    1.9944977    2115.9558    418.12301 
 1771000    299.73485   -10213.887            0   -10157.437   -1542.5813    32.696226    33.589734     33.45262    2.6236236    2117.1885     416.8492 
 1772000    302.04053   -10216.574            0    -10159.69   -839.10039    32.696226    33.589734     33.45262    2.4190759    2118.4563    415.58233 
 1773000    299.09021   -10219.726            0   -10163.398   -652.24382    32.696226    33.589734     33.45262    2.4739975    2119.6721     414.3053 
 1774000    301.17525   -10215.094            0   -10158.373   -969.95237    32.696226    33.589734     33.45262    2.6754371     2120.901    413.03091 
 1775000    294.94377     -10213.4            0   -10157.853   -1619.3077    32.696226    33.589734     33.45262    2.7528275    2122.1953    411.76924 
 1776000    290.67535   -10216.037            0   -10161.294   -2014.0846    32.696226    33.589734     33.45262    2.5414304    2123.4363    410.49724 
 1777000    304.81691   -10214.961            0   -10157.554   -1578.8524    32.696226    33.589734     33.45262    2.0855218    2124.6422     409.2185 
 1778000    306.22298   -10216.204            0   -10158.532   -1015.9946    32.696226    33.589734     33.45262    2.3468547    2125.8919    407.94826 
 1779000    298.32178   -10216.667            0   -10160.483   -3176.8007    32.696226    33.589734     33.45262    2.3902708    2127.1535    406.68033 
 1780000    312.62064   -10214.144            0   -10155.267   -2415.1056    32.696226    33.589734     33.45262    2.6081566    2128.3872    405.40709 
 1781000    304.95845   -10216.412            0   -10158.979    -1354.933    32.696226    33.589734     33.45262    2.5063731    2129.6559    404.14053 
 1782000    291.50728   -10215.423            0   -10160.523   -2282.4146    32.696226    33.589734     33.45262     2.197131    2130.9174    402.87262 
 1783000    318.60917   -10215.998            0   -10155.993   -2106.2263    32.696226    33.589734     33.45262    2.4517581    2132.1511    401.59946 
 1784000    299.01655   -10214.584            0   -10158.269   -2043.8266    32.696226    33.589734     33.45262    2.3369292    2133.4207    400.33311 
 1785000    294.64711   -10214.726            0   -10159.234   -1279.4951    32.696226    33.589734     33.45262     2.934708    2134.6406    399.05745 
 1786000    295.94831   -10213.851            0   -10158.115   -2050.4625    32.696226    33.589734     33.45262    2.0359745    2135.8948    397.78824 
 1787000      308.889    -10215.04            0   -10156.867   -2333.5269    32.696226    33.589734     33.45262    2.9233858    2137.1968    396.52792 
 1788000    291.50365   -10215.572            0   -10160.672   -1275.4164    32.696226    33.589734     33.45262    2.6010435     2138.534    395.27406 
 1789000    295.55546   -10214.129            0   -10158.466   -938.94464    32.696226    33.589734     33.45262     2.873389    2139.8579    394.01765 
 1790000    306.18994   -10212.316            0   -10154.651   -1695.0632    32.696226    33.589734     33.45262    2.3773555      2141.11    392.74799 
 1791000    301.70216   -10215.306            0   -10158.486     -2470.51    32.696226    33.589734     33.45262    2.2355063    2142.4175    391.48846 
 1792000       303.51   -10217.493            0   -10160.332   -1401.1914    32.696226    33.589734     33.45262    2.1214985    2143.7327    390.23029 
 1793000    305.14681   -10214.043            0   -10156.575   -1007.4608    32.696226    33.589734     33.45262    2.5015634    2145.0509    388.97261 
 1794000     289.7067   -10214.222            0   -10159.661   -1089.5899    32.696226    33.589734     33.45262    2.5152702    2146.3835    387.71744 
 1795000    297.01384    -10215.89            0   -10159.953   -3071.4236    32.696226    33.589734     33.45262    1.9296426    2147.6463    386.44962 
 1796000    301.25584    -10214.25            0   -10157.514   -2073.4889    32.696226    33.589734     33.45262    2.3403264    2149.0116    385.20019 
 1797000    304.39939   -10214.957            0   -10157.629   -2012.1845    32.696226    33.589734     33.45262    2.8328886    2150.2898    383.93508 
 1798000    296.25716   -10216.931            0   -10161.137   -1617.5036    32.696226    33.589734     33.45262    2.4021613    2151.6248    382.68003 
 1799000    302.50892   -10214.521            0   -10157.549    -1858.322    32.696226    33.589734     33.45262    2.9401613    2152.8663    381.40834 
 1800000    307.69064   -10216.209            0   -10158.261   -1439.9307    32.696226    33.589734     33.45262    2.6751708     2154.088    380.13317 
 1801000    298.40474   -10216.415            0   -10160.216   -1844.5055    32.696226    33.589734     33.45262    2.1651825     2155.362    378.86727 
 1802000    291.03808   -10217.099            0   -10162.288   -1851.5059    32.696226    33.589734     33.45262    3.0534724    2156.6446    377.60287 
 1803000    295.04827   -10213.956            0   -10158.389    -2084.662    32.696226    33.589734     33.45262     2.561423    2157.9079    376.33508 
 1804000    299.82485   -10215.447            0    -10158.98   -2045.3216    32.696226    33.589734     33.45262    2.6542798    2159.1487    375.06339 
 1805000     290.2749   -10217.218            0    -10162.55   -404.69181    32.696226    33.589734     33.45262    2.3531012    2160.3861    373.79114 
 1806000    296.05757   -10215.523            0   -10159.765   -2692.1274    32.696226    33.589734     33.45262    1.9339256    2161.6262    372.51941 
 1807000    298.87055   -10214.517            0   -10158.231   -1649.8019    32.696226    33.589734     33.45262    2.0716471    2162.8687    371.24811 
 1808000    301.89884   -10216.849            0   -10159.992   -2391.5405    32.696226    33.589734     33.45262     2.269108    2164.1011    369.97513 
 1809000     305.3615   -10218.369            0    -10160.86   -2529.6161    32.696226    33.589734     33.45262    2.3778659    2165.3327    368.70206 
 1810000    302.99484   -10214.283            0   -10157.219   -1362.0179    32.696226    33.589734     33.45262    2.4353334     2166.577     367.4312 
 1811000    298.57202   -10215.473            0   -10159.242   -1935.1016    32.696226    33.589734     33.45262    2.4386433    2167.7756    366.15262 
 1812000     294.5798   -10214.735            0   -10159.256   -2345.9987    32.696226    33.589734     33.45262    2.1118085    2168.9901    364.87684 
 1813000    298.28561   -10215.732            0   -10159.555   -1534.9052    32.696226    33.589734     33.45262    2.1426563    2170.3484    363.62521 
 1814000    294.16463   -10213.725            0   -10158.324   -2065.0186    32.696226    33.589734     33.45262    2.3830908    2171.7318    362.37765 
 1815000    295.79819   -10213.695            0   -10157.987   -2249.1993    32.696226    33.589734     33.45262    2.3520855    2173.0377    361.11706 
 1816000    300.85341   -10218.035            0   -10161.375    -1770.991    32.696226    33.589734     33.45262    2.6144057    2174.2835    359.84645 
 1817000     302.7271   -10215.269            0   -10158.256   -1187.2779    32.696226    33.589734     33.45262    2.7516582    2175.5024    358.57145 
 1818000    294.61181   -10214.013            0   -10158.528   -1259.7611    32.696226    33.589734     33.45262    2.0723805     2176.773      357.305 
 1819000    307.23434   -10217.707            0   -10159.845   -3144.6097    32.696226    33.589734     33.45262     2.200252    2178.0266    356.03577 
 1820000    294.53154   -10215.183            0   -10159.713   -2674.9131    32.696226    33.589734     33.45262    2.5562621    2179.2771    354.76604 
 1821000    300.30078   -10213.416            0   -10156.859   -2644.3109    32.696226    33.589734     33.45262    2.7408023    2180.5518    353.50026 
 1822000    296.00856   -10216.684            0   -10160.936   -2180.8953    32.696226    33.589734     33.45262    2.4778923    2181.8344    352.23575 
 1823000    295.07882   -10215.046            0   -10159.474   -1542.5893    32.696226    33.589734     33.45262    2.2788892    2183.1781    350.98104 
 1824000    291.19438   -10212.999            0   -10158.158   -1231.8107    32.696226    33.589734     33.45262    1.8912257    2184.4862    349.72053 
 1825000    305.25506   -10216.845            0   -10159.355   -1692.1381    32.696226    33.589734     33.45262    2.7314412    2185.8937     348.4758 
 1826000    297.19046   -10215.149            0   -10159.178   -2610.9448    32.696226    33.589734     33.45262    2.6390515    2187.2449    347.22196 
 1827000    315.77908   -10215.634            0   -10156.163   -2209.2817    32.696226    33.589734     33.45262    2.9352067    2188.5013    345.95301 
 1828000    295.20897    -10215.57            0   -10159.973   -2179.9421    32.696226    33.589734     33.45262    2.4164847    2189.8156     344.6932 
 1829000    306.20797   -10217.438            0   -10159.769   -1044.8167    32.696226    33.589734     33.45262    2.1695236    2191.1016    343.42888 
 1830000    308.69644   -10213.793            0   -10155.655   -2520.7335    32.696226    33.589734     33.45262    1.9817163    2192.3024    342.15124 
 1831000    302.84014   -10214.253            0   -10157.218   -1804.1089    32.696226    33.589734     33.45262    2.4337854    2193.5029    340.87365 
 1832000    299.67885   -10215.901            0   -10159.462   -2380.3911    32.696226    33.589734     33.45262    2.3619409    2194.7156    339.59803 
 1833000    306.94924   -10216.285            0   -10158.477   -2625.8112    32.696226    33.589734     33.45262    2.0400244    2195.9914     338.3322 
 1834000    313.14947   -10215.177            0   -10156.201   -2189.6338    32.696226    33.589734     33.45262    2.2388887    2197.2375    337.06181 
 1835000    299.67331   -10217.112            0   -10160.674   -638.11796    32.696226    33.589734     33.45262    2.1238186    2198.4327    335.78367 
 1836000    302.14953   -10214.613            0   -10157.709    -2434.203    32.696226    33.589734     33.45262    2.9387422    2199.6887    334.51486 
 1837000    302.35813   -10215.151            0   -10158.207   -1601.1707    32.696226    33.589734     33.45262    2.2851555    2200.9933    333.25345 
 1838000    289.15404   -10216.085            0   -10161.628    -3138.661    32.696226    33.589734     33.45262    1.9580913    2202.3503    331.99988 
 1839000    290.61305   -10212.536            0   -10157.805   -1966.9888    32.696226    33.589734     33.45262    2.9504349    2203.6017    330.73033 
 1840000    296.26354   -10215.471            0   -10159.675   -1996.4278    32.696226    33.589734     33.45262    2.2978454    2204.8424    329.45921 
 1841000    296.68227   -10217.292            0   -10161.418   -1032.8622    32.696226    33.589734     33.45262    2.6124877    2206.1447    328.19728 
 1842000    304.40473   -10216.379            0   -10159.049   -2209.9564    32.696226    33.589734     33.45262    2.5888257    2207.3866    326.92637 
 1843000    303.48456    -10215.15            0   -10157.995   -1240.6183    32.696226    33.589734     33.45262     2.179468    2208.5986    325.65109 
 1844000    307.32668   -10213.448            0   -10155.568   -1679.1031    32.696226    33.589734     33.45262    2.6529618    2209.8611    324.38328 
 1845000    297.01074   -10216.029            0   -10160.092   -2969.0718    32.696226    33.589734     33.45262    2.7249672    2211.1589    323.12064 
 1846000    296.52797   -10214.687            0   -10158.841   -2094.0189    32.696226    33.589734     33.45262    2.2340084    2212.3705    321.84542 
 1847000    311.66815    -10213.95            0   -10155.252   -1941.3376    32.696226    33.589734     33.45262    3.2651165    2213.6141    320.57491 
 1848000     299.0408   -10216.034            0   -10159.715   -2511.9069    32.696226    33.589734     33.45262    2.3150085    2214.8488    319.30314 
 1849000    292.06542   -10213.556            0   -10158.551   -2592.8267    32.696226    33.589734     33.45262    2.1300663     2216.067    318.02905 
 1850000    301.44438   -10213.462            0    -10156.69   -2193.0497    32.696226    33.589734     33.45262    2.3823641    2217.2887    316.75553 
 1851000    291.36452   -10215.951            0   -10161.078   -1590.6064    32.696226    33.589734     33.45262    2.0780435     2218.537    315.48584 
 1852000    299.42507       -10215            0   -10158.608   -3133.6385    32.696226    33.589734     33.45262    2.1534444    2219.7835    314.21593 
 1853000    308.30923   -10216.128            0   -10158.063    -1500.973    32.696226    33.589734     33.45262    2.6233608    2221.0622    312.95057 
 1854000    299.55783   -10215.233            0   -10158.817   -1640.7973    32.696226    33.589734     33.45262    2.5317321    2222.3703    311.68933 
 1855000    287.95995   -10216.206            0   -10161.973   -2051.5061    32.696226    33.589734     33.45262    2.7502543    2223.6687    310.42668 
 1856000    300.58565   -10215.364            0   -10158.754   -1597.6767    32.696226    33.589734     33.45262    2.2870139    2224.9695    309.16433 
 1857000    300.02227   -10214.534            0    -10158.03   -1322.5081    32.696226    33.589734     33.45262    2.9048663    2226.2639    307.90104 
 1858000    288.70584   -10216.391            0   -10162.018   -781.25798    32.696226    33.589734     33.45262    2.5542741    2227.5705    306.63939 
 1859000    304.41169   -10216.665            0   -10159.335   -1935.5754    32.696226    33.589734     33.45262     2.600387    2228.9044    305.38144 
 1860000    306.49759   -10216.081            0   -10158.358   -2332.8608    32.696226    33.589734     33.45262    2.1448695    2230.1995    304.11811 
 1861000    292.49637   -10215.886            0     -10160.8   -1121.4848    32.696226    33.589734     33.45262    2.3373761    2231.4235    302.84509 
 1862000    299.77969    -10213.66            0   -10157.202   -2221.1617    32.696226    33.589734     33.45262    2.6300152    2232.6452    301.57183 
 1863000    306.43587   -10215.745            0   -10158.033    -1896.945    32.696226    33.589734     33.45262    2.3081349    2233.9247    300.30639 
 1864000    295.85946   -10215.604            0   -10159.884   -1204.9041    32.696226    33.589734     33.45262    2.6202303    2235.2632    299.04882 
 1865000    292.40191   -10213.696            0   -10158.627   -1266.8226    32.696226    33.589734     33.45262    2.2968091     2236.508    297.77868 
 1866000     307.6078   -10212.451            0   -10154.518   -864.21973    32.696226    33.589734     33.45262    2.4318279    2237.7507     296.5083 
 1867000    302.93727    -10215.21            0   -10158.158   -2038.7935    32.696226    33.589734     33.45262    2.4932582    2239.0084    295.23993 
 1868000    301.61374   -10216.988            0   -10160.184   -1843.6817    32.696226    33.589734     33.45262    2.1837171    2240.2596    293.97071 
 1869000    301.27605   -10215.483            0   -10158.743   -1776.5471    32.696226    33.589734     33.45262    2.4745244    2241.5141    292.70195 
 1870000     311.7017    -10215.01            0   -10156.306   -1076.7598    32.696226    33.589734     33.45262     1.997439    2242.7762     291.4342 
 1871000    302.85466   -10217.731            0   -10160.694   -2186.7598    32.696226    33.589734     33.45262    2.2209371     2244.016    290.16356 
 1872000    302.95837    -10215.19            0   -10158.133    -1788.042    32.696226    33.589734     33.45262    2.8160896    2245.2258    288.88909 
 1873000     289.0643   -10214.176            0   -10159.736   -1253.2456    32.696226    33.589734     33.45262     2.613161    2246.4167    287.61229 
 1874000    297.62607    -10217.23            0   -10161.177    -2856.483    32.696226    33.589734     33.45262    2.3990083    2247.6437    286.34018 
 1875000    297.97815   -10214.398            0   -10158.279   -2050.5705    32.696226    33.589734     33.45262    2.7377042     2248.898    285.07157 
 1876000    295.06862   -10214.728            0   -10159.157   -2130.7406    32.696226    33.589734     33.45262    2.8562632    2250.1728    283.80558 
 1877000     290.8028   -10217.796            0   -10163.029   -2335.0556    32.696226    33.589734     33.45262    2.3986531      2251.46    282.54112 
 1878000    300.41876   -10215.966            0   -10159.388   -1361.3389    32.696226    33.589734     33.45262    2.0556966    2252.7023    281.27104 
 1879000    299.80457   -10214.828            0   -10158.365   -2203.9003    32.696226    33.589734     33.45262    2.2822587    2253.9631    280.00328 
 1880000    312.12621   -10215.676            0   -10156.892    -2020.708    32.696226    33.589734     33.45262    2.2616797    2255.2267    278.73589 
 1881000    296.17164   -10216.421            0   -10160.643   -2431.2887    32.696226    33.589734     33.45262    2.0675728    2256.4397    277.46227 
 1882000    303.69302   -10216.406            0   -10159.211   -2427.5706    32.696226    33.589734     33.45262    2.1747452    2257.7243    276.19747 
 1883000    311.82333   -10216.078            0   -10157.352   -1480.6511    32.696226    33.589734     33.45262    2.6930504    2258.9994    274.93151 
 1884000    293.31286   -10215.598            0   -10160.357   -1902.5925    32.696226    33.589734     33.45262    2.2540604    2260.2742    273.66549 
 1885000    312.67027   -10216.211            0   -10157.325   -2082.9944    32.696226    33.589734     33.45262     2.214588    2261.5772    272.40285 
 1886000    302.22241   -10214.681            0   -10157.763   -1732.1431    32.696226    33.589734     33.45262    2.9245197    2262.9534    271.14895 
 1887000    298.59993   -10216.273            0   -10160.037   -2303.7157    32.696226    33.589734     33.45262    2.1331522    2264.3422    269.89641 
 1888000    306.19321   -10215.937            0   -10158.271   -2846.7423    32.696226    33.589734     33.45262    2.7693928    2265.7706    268.64842 
 1889000    310.96447   -10214.353            0   -10155.789   -1985.7268    32.696226    33.589734     33.45262    2.5903546    2267.1152    267.39034 
 1890000    298.45894   -10215.202            0   -10158.993   -2228.1239    32.696226    33.589734     33.45262    2.1769102    2268.4046    266.12568 
 1891000    307.82807   -10217.403            0    -10159.43   -1092.4562    32.696226    33.589734     33.45262    2.6324241     2269.735    264.86579 
 1892000    306.67405    -10215.23            0   -10157.473   -2555.7027    32.696226    33.589734     33.45262    2.3837368    2270.9671    263.59439 
 1893000    302.69603   -10216.911            0   -10159.903   -2028.6928    32.696226    33.589734     33.45262    2.3566632    2272.2139    262.32475 
 1894000    300.47906   -10217.284            0   -10160.694    -2277.135    32.696226    33.589734     33.45262    2.3784026    2273.4153    261.04992 
 1895000    307.13381   -10215.283            0    -10157.44   -1638.2807    32.696226    33.589734     33.45262    2.8377919    2274.6369    259.77747 
 1896000      314.218    -10214.44            0   -10155.262   -2232.6533    32.696226    33.589734     33.45262    2.4058958    2275.8854    258.50814 
 1897000    303.20955   -10217.055            0   -10159.951   -1398.8909    32.696226    33.589734     33.45262    2.0414615    2277.1184    257.23708 
 1898000     294.4542   -10216.574            0   -10161.119   -3774.2737    32.696226    33.589734     33.45262    2.8448452    2278.3981    255.97131 
 1899000    305.06086   -10214.333            0   -10156.881   -2753.7492    32.696226    33.589734     33.45262    2.5400667    2279.6336    254.70059 
 1900000    301.97779   -10216.287            0   -10159.415   -934.06882    32.696226    33.589734     33.45262    2.1290736    2280.8741    253.43045 
 1901000    295.07176   -10215.753            0   -10160.182   -1429.6413    32.696226    33.589734     33.45262    2.1804102    2282.1241     252.1614 
 1902000     308.3514   -10217.554            0   -10159.482   -2239.8111    32.696226    33.589734     33.45262    1.8926761    2283.3973    250.89493 
 1903000     297.4206   -10215.217            0   -10159.204   -1708.8929    32.696226    33.589734     33.45262     2.709258    2284.6519    249.62641 
 1904000    302.46049   -10217.669            0   -10160.706   -2911.6601    32.696226    33.589734     33.45262    2.7054131    2285.8778     248.3548 
 1905000    296.61318    -10216.22            0   -10160.358   -2055.6316    32.696226    33.589734     33.45262    2.5339378    2287.0781    247.08045 
 1906000    306.86048   -10215.126            0   -10157.334   -1913.4169    32.696226    33.589734     33.45262    2.4175283    2288.3247    245.81119 
 1907000    296.13913   -10216.092            0    -10160.32   -2431.2128    32.696226    33.589734     33.45262    2.2965699    2289.5692     244.5417 
 1908000    299.59553   -10216.091            0   -10159.667   -1737.1351    32.696226    33.589734     33.45262    2.0667662    2290.8009    243.27089 
 1909000    308.33701   -10213.854            0   -10155.784   -529.94369    32.696226    33.589734     33.45262    2.6985247    2292.0263    241.99947 
 1910000    301.34145    -10217.11            0   -10160.358   -1714.7754    32.696226    33.589734     33.45262    2.6941092    2293.2541    240.72834 
 1911000    295.03154   -10215.605            0   -10160.041    -2324.845    32.696226    33.589734     33.45262    2.6388564    2294.5739    239.46685 
 1912000     311.6111   -10215.241            0   -10156.555   -1726.3786    32.696226    33.589734     33.45262    2.5342241    2295.9039    238.20636 
 1913000     297.9212   -10217.647            0   -10161.539   -1535.6631    32.696226    33.589734     33.45262    1.9964281    2297.2133    236.94368 
 1914000    305.93294    -10216.83            0   -10159.213   -2214.0127    32.696226    33.589734     33.45262    2.1597019    2298.4821    235.67677 
 1915000      307.431   -10216.018            0   -10158.119   -2471.7475    32.696226    33.589734     33.45262    2.5981636     2299.746    234.40937 
 1916000    295.34784   -10217.829            0   -10162.205   -1697.6676    32.696226    33.589734     33.45262    2.8370389    2301.0253    233.14353 
 1917000    296.77415   -10214.762            0    -10158.87   -1625.5967    32.696226    33.589734     33.45262    2.5878774     2302.334    231.88064 
 1918000    299.29109   -10215.699            0   -10159.333   -922.30083    32.696226    33.589734     33.45262    1.9254774    2303.7172    230.62516 
 1919000    288.76198   -10218.021            0   -10163.638   -2543.1817    32.696226    33.589734     33.45262    2.7683206    2305.1042    229.36991 
 1920000    294.96919   -10216.062            0    -10160.51   -2443.9471    32.696226    33.589734     33.45262    2.4215403     2306.405    228.10599 
 1921000    294.57286   -10214.653            0   -10159.176   -2509.1516    32.696226    33.589734     33.45262    2.2391001    2307.7529    226.84666 
 1922000    286.00781   -10215.971            0   -10162.107   -2768.0339    32.696226    33.589734     33.45262    2.3789709    2309.0458    225.58186 
 1923000    292.72649   -10215.231            0   -10160.102   -2228.3505    32.696226    33.589734     33.45262    2.5937077    2310.3396    224.31712 
 1924000    303.27735   -10215.732            0   -10158.616   -2710.8523    32.696226    33.589734     33.45262    2.3383672    2311.6299      223.052 
 1925000    300.41565   -10218.493            0   -10161.915   -2404.7682    32.696226    33.589734     33.45262    2.4766543    2312.8519    221.78032 
 1926000     300.0344   -10215.336            0    -10158.83   -1950.1953    32.696226    33.589734     33.45262     2.057417    2314.0632    220.50766 
 1927000    303.54693   -10215.846            0   -10158.679   -2640.1692    32.696226    33.589734     33.45262    2.6733178    2315.2633    219.23402 
 1928000    305.31922   -10218.848            0   -10161.347   -2534.4915    32.696226    33.589734     33.45262    2.6941093    2316.5052    217.96439 
 1929000    295.95532   -10214.966            0   -10159.228   -1890.7292    32.696226    33.589734     33.45262    2.5734058    2317.6975    216.69014 
 1930000    300.89159   -10215.693            0   -10159.026   -2744.9863    32.696226    33.589734     33.45262    2.4868704    2318.9082     215.4177 
 1931000    296.37073    -10216.94            0   -10161.124   -2501.9192    32.696226    33.589734     33.45262    2.3363523    2320.1194    214.14537 
 1932000    297.04789   -10216.798            0   -10160.855   -2359.1981    32.696226    33.589734     33.45262    2.6214457    2321.3546    212.87532 
 1933000    297.39995   -10214.034            0   -10158.024    -2258.729    32.696226    33.589734     33.45262    2.4862663    2322.5787    211.60428 
 1934000    299.31509    -10218.09            0    -10161.72    -2826.038    32.696226    33.589734     33.45262    2.0932681     2323.826     210.3354 
 1935000      287.815   -10216.138            0   -10161.933   -2214.7472    32.696226    33.589734     33.45262    2.5917477    2325.0519    209.06461 
 1936000    294.90843   -10215.033            0   -10159.492   -2050.7217    32.696226    33.589734     33.45262    2.3686364    2326.2628    207.79253 
 1937000    306.44435   -10215.317            0   -10157.604   -1033.9474    32.696226    33.589734     33.45262    2.4632063    2327.5568     206.5279 
 1938000    296.07667   -10217.222            0   -10161.461   -2801.9194    32.696226    33.589734     33.45262    2.3205169    2328.8769    205.26554 
 1939000    297.80897   -10216.471            0   -10160.384    -2815.396    32.696226    33.589734     33.45262    2.5778449    2330.2105    204.00429 
 1940000    312.07652   -10216.794            0    -10158.02   -2085.8013    32.696226    33.589734     33.45262     2.628804    2331.4302    202.73306 
 1941000     301.2667   -10216.622            0   -10159.884   -1706.2831    32.696226    33.589734     33.45262    2.4722735     2332.689    201.46526 
 1942000    299.97109   -10218.295            0   -10161.801   -1555.4383    32.696226    33.589734     33.45262    2.0159743    2333.9311    200.19605 
 1943000    291.80579   -10214.791            0   -10159.835   -3100.2054    32.696226    33.589734     33.45262    2.3146031    2335.1531    198.92514 
 1944000     296.5634   -10214.266            0   -10158.413   -3001.1123    32.696226    33.589734     33.45262    2.1958398    2336.3976    197.65619 
 1945000    296.73948    -10218.58            0   -10162.695   -1997.9056    32.696226    33.589734     33.45262    2.3574687    2337.6759    196.39011 
 1946000    302.82969   -10218.414            0   -10161.381   -2100.0457    32.696226    33.589734     33.45262    2.1337718     2338.882      195.118 
 1947000    298.15872   -10214.522            0   -10158.369   -2321.0953    32.696226    33.589734     33.45262    2.8955614    2340.1528    193.85132 
 1948000    301.91754   -10217.033            0   -10160.173   -1788.5167    32.696226    33.589734     33.45262     2.534897    2341.4012    192.58279 
 1949000    295.30207    -10217.31            0   -10161.695    -2371.834    32.696226    33.589734     33.45262    2.0415279    2342.7289    191.32075 
 1950000    295.28727   -10214.732            0    -10159.12   -2673.5816    32.696226    33.589734     33.45262    2.4804139    2344.0236    190.05597 
 1951000    303.05174    -10216.33            0   -10159.256   -1968.1569    32.696226    33.589734     33.45262    2.6840693    2345.3294    188.79205 
 1952000    294.68956   -10217.544            0   -10162.045    -1907.871    32.696226    33.589734     33.45262    1.9764141    2346.7096    187.53403 
 1953000    304.02358   -10218.035            0   -10160.777    -1912.193    32.696226    33.589734     33.45262    2.5920834    2348.0147    186.26992 
 1954000    299.12615   -10215.194            0   -10158.859   -2419.9067    32.696226    33.589734     33.45262    2.3987662    2349.3245    185.00613 
 1955000     290.7347   -10216.758            0   -10162.004   -1439.0072    32.696226    33.589734     33.45262    2.3094181    2350.6538    183.74383 
 1956000    298.18554   -10216.799            0   -10160.641   -781.59883    32.696226    33.589734     33.45262    2.5013097    2351.8661    182.47237 
 1957000    296.62413   -10214.838            0   -10158.974   -485.34153    32.696226    33.589734     33.45262    2.7142582    2353.1207    181.20423 
 1958000    293.84639   -10217.222            0   -10161.881   -1656.1347    32.696226    33.589734     33.45262    2.0666204    2354.3752     179.9361 
 1959000    301.07661   -10215.105            0   -10158.403   -2421.3906    32.696226    33.589734     33.45262    2.6890674    2355.5935    178.66524 
 1960000    303.58076   -10216.112            0   -10158.938   -1819.8179    32.696226    33.589734     33.45262    2.8752515    2356.8724      177.399 
 1961000    289.56005   -10215.746            0   -10161.213   -2078.6223    32.696226    33.589734     33.45262    2.7671521    2358.0856    176.12784 
 1962000    306.50737   -10217.754            0   -10160.029   -2599.0129    32.696226    33.589734     33.45262    2.4487992    2359.3987    174.86414 
 1963000    303.03569   -10215.859            0   -10158.788    -2222.555    32.696226    33.589734     33.45262    2.7029228    2360.7215     173.6011 
 1964000    302.15398    -10213.08            0   -10156.174   -1672.7481    32.696226    33.589734     33.45262    2.8630338    2362.0275    172.33677 
 1965000    298.41977   -10216.511            0   -10160.309   -2019.9261    32.696226    33.589734     33.45262     2.909601    2363.2728      171.068 
 1966000    299.50581   -10215.998            0   -10159.592   -1889.3171    32.696226    33.589734     33.45262    2.1062855     2364.523    169.79961 
 1967000    303.52575   -10213.615            0   -10156.452   -1529.8473    32.696226    33.589734     33.45262     3.082619    2365.7892    168.53238 
 1968000    297.17383   -10216.889            0   -10160.922   -1043.6919    32.696226    33.589734     33.45262    2.5707051    2367.0349    167.26371 
 1969000    295.26641   -10215.382            0   -10159.774   -2145.8212    32.696226    33.589734     33.45262    2.3928643    2368.2283    165.99139 
 1970000    309.70606    -10214.43            0   -10156.103   -2523.2825    32.696226    33.589734     33.45262    2.4471788    2369.4594    164.72177 
 1971000    303.55108   -10218.441            0   -10161.273   -1533.6827    32.696226    33.589734     33.45262    2.6073646     2370.737    163.45541 
 1972000    302.32206   -10216.859            0   -10159.922   -1557.5294    32.696226    33.589734     33.45262    2.2918183    2371.9387    162.18384 
 1973000    304.60405   -10215.118            0   -10157.751   -1522.6148    32.696226    33.589734     33.45262    2.6888558    2373.2238    160.91801 
 1974000    293.51942    -10217.37            0    -10162.09   -2042.8147    32.696226    33.589734     33.45262    2.8335427    2374.4563    159.64861 
 1975000    303.72574   -10216.105            0   -10158.904   -2216.5991    32.696226    33.589734     33.45262    2.4720548    2375.6806    158.37871 
 1976000    304.14055   -10217.237            0   -10159.958   -2374.1661    32.696226    33.589734     33.45262    2.1020065    2376.9096    157.10916 
 1977000    300.28947   -10218.882            0   -10162.328   -2902.8021    32.696226    33.589734     33.45262    2.2057119    2378.1442    155.84003 
 1978000    296.74086    -10214.88            0   -10158.994   -2331.8573    32.696226    33.589734     33.45262    2.1656915    2379.3706     154.5704 
 1979000    306.74265   -10218.282            0   -10160.513   -902.69787    32.696226    33.589734     33.45262    2.2196349    2380.6132    153.30186 
 1980000    298.11846   -10219.863            0   -10163.717   -1356.5246    32.696226    33.589734     33.45262    2.7643859    2381.8475    152.03282 
 1981000    297.96517   -10216.487            0   -10160.371   -1982.2384    32.696226    33.589734     33.45262    2.2679203    2383.1599    150.76876 
 1982000    306.05339   -10216.042            0   -10158.402   -1922.2305    32.696226    33.589734     33.45262    2.3374259    2384.5021    149.50651 
 1983000    300.11897   -10218.448            0   -10161.926   -1831.3669    32.696226    33.589734     33.45262    2.4766145    2385.8629    148.24533 
 1984000    299.06818    -10216.89            0   -10160.566   -1646.3024    32.696226    33.589734     33.45262    2.3872887     2387.188    146.98185 
 1985000    303.66474   -10216.118            0   -10158.928    -545.5741    32.696226    33.589734     33.45262    2.3516173     2388.525    145.71903 
 1986000     294.4862   -10215.621            0   -10160.159   -2137.8696    32.696226    33.589734     33.45262     2.302902    2389.8432      144.455 
 1987000    290.52843   -10218.803            0   -10164.087   -2315.0406    32.696226    33.589734     33.45262    2.5449469     2391.201    143.19328 
 1988000    303.07857    -10217.38            0   -10160.301   -2042.2098    32.696226    33.589734     33.45262    2.0239692    2392.5407    141.93038 
 1989000    299.32527   -10216.364            0   -10159.991    -1626.758    32.696226    33.589734     33.45262    2.3899453    2393.7619    140.66044 
 1990000    292.52993    -10219.12            0   -10164.027   -2134.5812    32.696226    33.589734     33.45262    2.2724972     2394.993    139.39112 
 1991000    293.16792   -10215.341            0   -10160.128   -939.73278    32.696226    33.589734     33.45262    2.5892339    2396.2046    138.12073 
 1992000    300.31455   -10215.963            0   -10159.405   -1448.3149    32.696226    33.589734     33.45262    2.3355951    2397.4006     136.8495 
 1993000    300.77358   -10219.098            0   -10162.453   -1527.7081    32.696226    33.589734     33.45262    2.3296597    2398.6395    135.58079 
 1994000    311.09652   -10218.286            0   -10159.697   -2522.5157    32.696226    33.589734     33.45262    2.9424317    2399.8482    134.31041 
 1995000    304.84345   -10216.739            0   -10159.327   -1750.6342    32.696226    33.589734     33.45262    2.2570561    2401.1031    133.04265 
 1996000    296.80451   -10218.474            0   -10162.576    -1869.258    32.696226    33.589734     33.45262    2.6925385    2402.3901    131.77667 
 1997000     308.8724    -10216.27            0     -10158.1    -2783.719    32.696226    33.589734     33.45262    2.2303068    2403.6326    130.50825 
 1998000    305.66159   -10216.717            0   -10159.151   -2162.8385    32.696226    33.589734     33.45262    2.0834958    2404.8963      129.241 
 1999000    299.96734   -10217.987            0   -10161.494    -509.7713    32.696226    33.589734     33.45262    2.3735724    2406.1809    127.97487 
 2000000    301.51316    -10215.99            0   -10159.205   -2519.7781    32.696226    33.589734     33.45262    2.4236795    2407.4214    126.70639 
 2001000    311.98595   -10213.832            0   -10155.075   -747.54471    32.696226    33.589734     33.45262    2.4153275    2408.6938    125.43961 
 2002000    299.85874   -10216.481            0   -10160.008   -3000.1616    32.696226    33.589734     33.45262    2.3816002    2409.9935    124.17422 
 2003000    311.00505   -10219.687            0   -10161.115   -1524.8368    32.696226    33.589734     33.45262    2.3059209    2411.2311    122.90563 
 2004000    306.87623   -10214.787            0   -10156.992   -750.63221    32.696226    33.589734     33.45262    2.2763642    2412.4871    121.63801 
 2005000    295.27101    -10215.86            0   -10160.251   -1953.5886    32.696226    33.589734     33.45262    2.3502025    2413.7482    120.37065 
 2006000    304.47435   -10218.085            0   -10160.743   -1521.8381    32.696226    33.589734     33.45262     2.347763    2415.0151    119.10358 
 2007000     307.0349   -10216.888            0   -10159.063   -2394.9054    32.696226    33.589734     33.45262    2.9496909    2416.2431    117.83461 
 2008000    299.00106   -10214.864            0   -10158.553    -2180.982    32.696226    33.589734     33.45262    2.3213893    2417.5088    116.56751 
 2009000    293.43045   -10217.205            0   -10161.942   -1545.1389    32.696226    33.589734     33.45262     2.417939    2418.7185    115.29774 
 2010000    301.13335   -10215.993            0    -10159.28   -1218.3597    32.696226    33.589734     33.45262    2.3097459    2419.9557    114.02932 
 2011000    315.90299   -10213.854            0    -10154.36   -1308.7049    32.696226    33.589734     33.45262    2.9002877    2421.2396    112.76312 
 2012000    306.26114    -10217.59            0   -10159.911   -2179.2723    32.696226    33.589734     33.45262    2.2811415    2422.5854    111.49974 
 2013000     296.3968    -10217.37            0   -10161.549   -2140.1731    32.696226    33.589734     33.45262    2.5357197    2423.9915    110.23903 
 2014000    300.69314   -10215.221            0    -10158.59   -2393.2227    32.696226    33.589734     33.45262    3.0848605    2425.4214    108.97923 
 2015000    304.39412   -10217.372            0   -10160.045   -1023.8918    32.696226    33.589734     33.45262    3.4710716    2426.7649    107.71541 
 2016000    298.87504   -10217.985            0   -10161.697   -1436.1273    32.696226    33.589734     33.45262      2.45562    2428.0849    106.45049 
 2017000    303.42688   -10215.793            0   -10158.648   -1595.0906    32.696226    33.589734     33.45262    2.1241739    2429.4176    105.18605 
 2018000    292.53873   -10218.032            0   -10162.937    -2210.436    32.696226    33.589734     33.45262     2.327493    2430.6605    103.91771 
 2019000    299.59102   -10217.253            0   -10160.831   -1944.2322    32.696226    33.589734     33.45262    2.2808222    2431.8564     102.6474 
 2020000    305.51208   -10216.932            0   -10159.394   -1629.8034    32.696226    33.589734     33.45262    2.3404135    2433.0974    101.37906 
 2021000    295.77222   -10218.416            0   -10162.713   -767.31505    32.696226    33.589734     33.45262    2.4137756    2434.3856    100.11268 
 2022000    289.04407   -10216.631            0   -10162.195   -2325.3906    32.696226    33.589734     33.45262    1.8442354    2435.6483    98.845249 
 2023000    297.16338   -10215.628            0   -10159.662   -883.83788    32.696226    33.589734     33.45262    2.4050936    2436.8917    97.577046 
 2024000    298.88515   -10216.633            0   -10160.343   -1638.0264    32.696226    33.589734     33.45262    2.6123203     2438.084    96.306852 
 2025000    291.22182   -10217.863            0   -10163.017   -2210.6501    32.696226    33.589734     33.45262    2.3651052    2439.3381    95.039146 
 2026000    304.62185   -10216.178            0   -10158.808   -2707.6461    32.696226    33.589734     33.45262    2.2434878    2440.5947     93.77155 
 2027000    296.38758   -10216.068            0   -10160.249   -941.47749    32.696226    33.589734     33.45262     3.140832    2441.8413    92.503588 
 2028000    294.68666   -10218.423            0   -10162.925   -2552.2971    32.696226    33.589734     33.45262    2.2487771    2443.0512    91.234276 
 2029000    302.91522   -10214.977            0   -10157.928   -1991.2179    32.696226    33.589734     33.45262     2.376238    2444.3156    89.967035 
 2030000     295.9642   -10216.564            0   -10160.824   -1897.2889    32.696226    33.589734     33.45262    2.7235899    2445.5454    88.698537 
 2031000    308.25344   -10218.914            0    -10160.86   -2293.4434    32.696226    33.589734     33.45262     3.636534    2446.7655    87.429734 
 2032000    305.30685    -10215.25            0   -10157.751   -1245.4911    32.696226    33.589734     33.45262    2.2675908    2448.0048    86.161659 
 2033000    296.05401   -10217.092            0   -10161.336   -1309.8445    32.696226    33.589734     33.45262    2.2422702    2449.2759    84.894716 
 2034000     301.5125   -10216.211            0   -10159.426    -1802.467    32.696226    33.589734     33.45262    2.4209277    2450.5436    83.627653 
 2035000    308.83906   -10215.199            0   -10157.035   -1552.5046    32.696226    33.589734     33.45262    2.4172919    2451.7738    82.359328 
 2036000    290.57418   -10215.016            0   -10160.292   -1476.9342    32.696226    33.589734     33.45262    2.4191274    2452.9976    81.090831 
 2037000    289.94867   -10215.055            0   -10160.448   -2089.2632    32.696226    33.589734     33.45262    2.8928688    2454.2729    79.824053 
 2038000    312.65458   -10215.347            0   -10156.464   -1739.9082    32.696226    33.589734     33.45262    2.2635428    2455.6021    78.558993 
 2039000    306.64875   -10218.212            0    -10160.46   -1008.2034    32.696226    33.589734     33.45262    2.5459554    2456.9401    77.294145 
 2040000    304.01224   -10218.233            0   -10160.977   -2555.0186    32.696226    33.589734     33.45262    2.2713016     2458.174    76.025999 
 2041000    314.42017   -10215.959            0   -10156.744   -2988.0951    32.696226    33.589734     33.45262    3.0206357    2459.4249    74.758408 
 2042000    291.76827   -10215.188            0   -10160.238   -1383.8977    32.696226    33.589734     33.45262    2.2044454    2460.6666    73.490557 
 2043000    295.65273   -10216.056            0   -10160.375   -2391.7743    32.696226    33.589734     33.45262    2.5245147    2461.9625    72.224325 
 2044000    300.58847   -10214.906            0   -10158.296   -2048.3257    32.696226    33.589734     33.45262    2.2501536    2463.2555    70.957978 
 2045000    301.01447   -10215.701            0    -10159.01   -1801.8918    32.696226    33.589734     33.45262    2.0583281    2464.5637    69.692031 
 2046000    289.33746    -10215.88            0   -10161.388   -1977.4638    32.696226    33.589734     33.45262    2.6460371    2465.9056    68.426981 
 2047000     310.0612    -10216.18            0   -10157.786   -1537.0339    32.696226    33.589734     33.45262    2.2323836    2467.2325    67.161438 
 2048000    314.88546   -10212.875            0   -10153.572   -2228.4379    32.696226    33.589734     33.45262    2.6795454    2468.5476    65.895522 
 2049000    297.79463   -10216.046            0   -10159.962   -1629.6593    32.696226    33.589734     33.45262    3.0022758    2469.8328     64.62877 
 2050000    293.73283   -10217.019            0     -10161.7   -2609.8537    32.696226    33.589734     33.45262    2.5331847    2471.1031    63.361618 
 2051000     307.4869   -10215.902            0   -10157.993   -1491.7844    32.696226    33.589734     33.45262    2.6695299    2472.3357    62.093515 
 2052000    296.30085    -10216.03            0   -10160.227   -2443.3373    32.696226    33.589734     33.45262    2.8033953    2473.5894    60.825968 
 2053000     292.6441   -10216.672            0   -10161.558   -2869.2732    32.696226    33.589734     33.45262    2.5381471    2474.8069    59.557566 
 2054000    302.51775   -10215.293            0    -10158.32    -1746.634    32.696226    33.589734     33.45262    2.4749195    2476.0082    58.288831 
 2055000    308.25137   -10219.499            0   -10161.445   -2183.4354    32.696226    33.589734     33.45262    2.4902908    2477.3057    57.022381 
 2056000    293.86447   -10216.808            0   -10161.464   -1986.8135    32.696226    33.589734     33.45262    2.1858358     2478.568    55.755108 
 2057000    307.30346   -10217.374            0   -10159.499   -2515.4409    32.696226    33.589734     33.45262    2.4736245    2479.8035    54.487252 
 2058000    307.88262   -10217.788            0   -10159.804   -3016.1167    32.696226    33.589734     33.45262    2.4612491    2481.0381    53.219407 
 2059000    293.37475   -10217.956            0   -10162.704   -1420.7694    32.696226    33.589734     33.45262    2.0940935    2482.2771     51.95169 
 2060000    302.04881   -10216.051            0   -10159.166   -948.26404    32.696226    33.589734     33.45262     2.444074    2483.4616    50.682889 
 2061000    300.88545   -10215.999            0   -10159.333   -1558.7837    32.696226    33.589734     33.45262    3.4930526    2484.7322    49.415887 
 2062000    297.05048   -10218.849            0   -10162.905   -1467.1507    32.696226    33.589734     33.45262    2.4817113    2486.0633    48.150054 
 2063000    291.95108   -10219.221            0   -10164.238   -1646.0517    32.696226    33.589734     33.45262    2.1623388    2487.4399     46.88501 
 2064000    301.17018    -10216.91            0    -10160.19   -2261.8357    32.696226    33.589734     33.45262    2.5358561    2488.7047    45.617805 
 2065000    304.10227   -10215.613            0   -10158.341   -2205.4624    32.696226    33.589734     33.45262    2.3868264    2489.9819    44.350822 
 2066000    291.14761   -10217.399            0   -10162.567   -2015.9792    32.696226    33.589734     33.45262    2.5300292    2491.2061    43.082914 
 2067000    294.56008   -10215.557            0   -10160.082   -751.99928    32.696226    33.589734     33.45262    2.7536014    2492.4838    41.815945 
 2068000     300.8652   -10216.123            0   -10159.461   -1683.8935    32.696226    33.589734     33.45262    2.2863971    2493.7279    40.548421 
 2069000    292.99754   -10216.985            0   -10161.804   -2033.3385    32.696226    33.589734     33.45262    2.1536362    2494.9494    39.280564 
 2070000    296.63513   -10216.827            0   -10160.962   -2703.3226    32.696226    33.589734     33.45262    2.0780287    2496.2301    38.013656 
 2071000    298.53431   -10214.964            0   -10158.741   -1840.1784    32.696226    33.589734     33.45262    2.3954332    2497.4302    36.745549 
 2072000    291.66598    -10216.63            0     -10161.7   -1845.3488    32.696226    33.589734     33.45262    2.3403967    2498.7316    35.478948 
 2073000    286.83125   -10216.988            0   -10162.969   -1739.4582    32.696226    33.589734     33.45262    2.1591221    2499.9492    34.211165 
 2074000    305.53204   -10217.117            0   -10159.575    -2728.762    32.696226    33.589734     33.45262    2.1590646    2501.1958    32.943814 
 2075000    310.00745   -10217.267            0   -10158.883    -836.0573    32.696226    33.589734     33.45262    2.3714494    2502.5076    31.677311 
 2076000    299.19811   -10218.746            0   -10162.397   -1260.9068    32.696226    33.589734     33.45262    2.3822054    2503.8352    30.410954 
 2077000    307.84875   -10216.546            0   -10158.569   -1381.6754    32.696226    33.589734     33.45262    2.4926112    2505.1692    29.144609 
 2078000    303.69396   -10216.605            0    -10159.41   -2071.0473    32.696226    33.589734     33.45262    2.7189973    2506.5297     27.87849 
 2079000    301.12346   -10219.251            0   -10162.539   -1614.4474    32.696226    33.589734     33.45262    2.0171405     2507.857    26.611924 
 2080000    302.15744   -10217.176            0    -10160.27   -2080.2495    32.696226    33.589734     33.45262    2.5191403    2509.1856    25.345309 
 2081000    308.19977   -10216.579            0   -10158.535   -1402.5703    32.696226    33.589734     33.45262    2.2481724    2510.4431     24.07795 
 2082000    293.49661   -10217.674            0   -10162.399   -1589.1788    32.696226    33.589734     33.45262    2.6839453    2511.6501    22.810142 
 2083000    296.49506   -10216.582            0   -10160.742   -1781.0263    32.696226    33.589734     33.45262    2.3492798    2512.9014    21.542775 
 2084000    300.40921   -10216.736            0    -10160.16   -1584.5886    32.696226    33.589734     33.45262    2.7486338    2514.1698    20.275563 
 2085000    293.79037   -10216.793            0   -10161.463   -540.05378    32.696226    33.589734     33.45262    2.5660896    2515.4001    19.008061 
 2086000    299.57179   -10218.837            0   -10162.418   -1625.8635    32.696226    33.589734     33.45262    2.0333743     2516.698    17.741074 
 2087000    305.27387   -10216.626            0   -10159.133   -1854.6542    32.696226    33.589734     33.45262    2.0831606    2518.0631    16.474495 
 2088000    299.06211   -10217.868            0   -10161.545   -1666.0137    32.696226    33.589734     33.45262     2.273775    2519.3757    15.207499 
 2089000    288.56133   -10219.669            0   -10165.324   -1881.6882    32.696226    33.589734     33.45262    2.7690376     2520.622    13.940092 
 2090000    304.81975   -10217.118            0   -10159.711   -1697.8523    32.696226    33.589734     33.45262    2.5435505    2521.8466    12.672596 
 2091000    311.28972   -10217.442            0   -10158.817   -2381.6858    32.696226    33.589734     33.45262    2.3062146    2523.1244    11.405384 
 2092000    298.36836   -10218.514            0   -10162.322   -1139.3505    32.696226    33.589734     33.45262    2.8079587    2524.2964    10.137736 
 2093000    308.27645   -10216.646            0   -10158.587   -1945.8746    32.696226    33.589734     33.45262    2.2586756    2525.5177    8.8703582 
 2094000    306.02556   -10217.174            0    -10159.54   -1548.0102    32.696226    33.589734     33.45262    2.4693059    2526.7274     7.602991 
 2095000    290.29783   -10216.561            0   -10161.889   -2097.4388    32.696226    33.589734     33.45262    2.2554046    2527.9258    6.3356535 
 2096000    305.94528   -10214.445            0   -10156.825   -629.26742    32.696226    33.589734     33.45262    2.4613099    2529.2317    5.0686007 
 2097000    299.50084   -10216.009            0   -10159.603   -1076.1028    32.696226    33.589734     33.45262    2.2096281     2530.534    3.8015033 
 2098000    303.66884    -10218.79            0     -10161.6   -1503.2309    32.696226    33.589734     33.45262    2.2485089    2531.7607     2.534295 
 2099000    307.57635   -10215.269            0   -10157.343    -1207.949    32.696226    33.589734     33.45262    2.4269226    2533.0536    1.2671604 
 2100000    299.46768   -10215.631            0   -10159.232   -1546.7828    32.696226    33.589734     33.45262    2.7590093    2534.3378            0 
Loop time of 2534.34 on 80 procs for 2000000 steps with 1458 atoms

Performance: 68.183 ns/day, 0.352 hours/ns, 789.161 timesteps/s
99.3% CPU use with 80 MPI tasks x 1 OpenMP threads

MPI task timing breakdown:
Section |  min time  |  avg time  |  max time  |%varavg| %total
---------------------------------------------------------------
Pair    | 205.64     | 250.75     | 291.71     | 130.0 |  9.89
Kspace  | 1178.8     | 1236.4     | 1286.8     |  73.7 | 48.78
Neigh   | 4.8699     | 5.8031     | 7.0021     |  18.3 |  0.23
Comm    | 977.02     | 1007       | 1059       |  60.4 | 39.73
Output  | 1.7957     | 1.7968     | 1.8018     |   0.1 |  0.07
Modify  | 18.33      | 20.806     | 23.525     |  22.1 |  0.82
Other   |            | 11.86      |            |       |  0.47

Nlocal:    18.225 ave 24 max 13 min
Histogram: 5 9 11 9 8 10 11 7 6 4
Nghost:    1794.75 ave 1817 max 1763 min
Histogram: 3 3 7 3 8 17 11 12 7 9
Neighs:    4149.8 ave 5478 max 2884 min
Histogram: 3 5 15 8 11 12 11 6 6 3

Total # of neighbors = 331984
Ave neighs/atom = 227.698
Neighbor list builds = 32971
Dangerous builds = 0

# Final Commands
variable final_energy equal etotal
print "final_energy: ${final_energy}"
final_energy: -10159.2319225207
print "END_OF_COMP"
END_OF_COMP
Total wall time: 0:44:30
