LAMMPS (7 Aug 2019)
  using 1 OpenMP thread(s) per MPI task
# Input written to comply with LAMMPS 2017-08-11 00:00:00

# Atomic Configuration
units           metal
boundary        p p p
box tilt large
atom_style      charge
read_data       3x3x3.lmp
  triclinic box = (0 0 0) to (30.8409 30.9399 30.8613) with tilt (-0.0317434 -0.0977723 -0.0884718)
  4 by 5 by 4 MPI processor grid
  reading atoms ...
  1458 atoms
  read_data CPU = 0.0120709 secs
group           lithium type 1
459 atoms in group lithium
group           scandium type 2
135 atoms in group scandium
group           chloride type 3
864 atoms in group chloride
variable        T1 equal 300
variable        dt equal 0.001

# Potential Setup
pair_style  buck/coul/long 12.0
pair_coeff * * 0.0 1.0 0.0
pair_coeff 1 1     360.530000  0.161000   0.000000 # Li Li
pair_coeff 1 3     421.040000  0.344000   0.000000 # Li Cl
pair_coeff 3 3    1227.200000  0.321000  14.530000 # Cl Cl
pair_coeff 2 3   12131.350000  0.250700   0.000000 # Sc Cl

kspace_style pppm 1e-05

# General Setup
timestep        0.001

# Thermodynamic Information Output
thermo_style custom step temp epair emol etotal press lx ly lz fmax cpu cpuremain
thermo          1000

# Intial Atom Velocity
velocity all create ${T1} 80800 dist gaussian rot yes
velocity all create 300 80800 dist gaussian rot yes

# Stage 0: npt_equilibriation
restart         0
fix             int all npt aniso 1.0 1.0 0.1 temp ${T1} ${T1} $(100*dt)
fix             int all npt aniso 1.0 1.0 0.1 temp 300 ${T1} $(100*dt)
fix             int all npt aniso 1.0 1.0 0.1 temp 300 300 $(100*dt)
fix             int all npt aniso 1.0 1.0 0.1 temp 300 300 0.10000000000000000555
run             50000
PPPM initialization ...
  using 12-bit tables for long-range coulomb (../kspace.cpp:323)
  G vector (1/distance) = 0.271552
  grid = 30 30 30
  stencil order = 5
  estimated absolute RMS force accuracy = 0.000111037
  estimated relative force accuracy = 7.71111e-06
  using double precision MKL FFT
  3d grid and FFT values/proc = 2548 384
Neighbor list info ...
  update every 1 steps, delay 10 steps, check yes
  max neighbors/atom: 2000, page size: 100000
  master list distance cutoff = 14
  ghost atom cutoff = 14
  binsize = 7, bins = 5 5 5
  1 neighbor lists, perpetual/occasional/extra = 1 0 0
  (1) pair buck/coul/long, perpetual
      attributes: half, newton on
      pair build: half/bin/newton/tri
      stencil: half/bin/3d/newton/tri
      bin: standard
Per MPI rank memory allocation (min/avg/max) = 3.45 | 3.524 | 3.713 Mbytes
Step Temp E_pair E_mol TotEng Press Lx Ly Lz Fmax CPU CPULeft 
       0          300   -9859.8291            0   -9803.3294   -715.17441    30.840886    30.939923    30.861307    2.7005434            0            0 
    1000    306.66638   -10159.223            0   -10101.468   -53.655629    33.565718    33.583713    33.746137    2.2792249     1.406142    68.901016 
    2000    303.94861   -10171.543            0     -10114.3    21.309136    33.584951    33.158574    33.525198    2.2604576    2.9476321     70.74317 
    3000    299.21891   -10175.443            0    -10119.09    37.998218    33.209333    33.467927    33.699369    2.6191232    4.4992111    70.487655 
    4000    294.87931   -10180.112            0   -10124.576   -183.55219    33.500712     33.57124    33.280894    2.0797928    6.0490241    69.563788 
    5000    309.12444   -10182.465            0   -10124.247   -162.98127    32.925053    33.645814    33.525255    2.6315392     7.537226    67.835034 
    6000    298.84887   -10185.551            0   -10129.268    648.85987    33.217709    33.601414    33.417507    2.7696486    8.9502351    65.635065 
    7000    296.82825   -10182.847            0   -10126.945    168.58581    33.397999    33.412989    33.294477     2.946056    10.322689     63.41081 
    8000     298.9622    -10182.73            0   -10126.426   -621.30133    33.143495    33.755383    33.366117    2.4778351    11.676009    61.299053 
    9000    286.32953   -10183.934            0   -10130.009   -20.427014    33.344035     33.69193    33.459421    2.4558227    13.133977    59.832567 
   10000    301.66557    -10187.44            0   -10130.627    1339.7231    33.209546    33.505309    33.243662     2.215857    14.508966    58.035869 
   11000    298.91203   -10187.244            0    -10130.95   -381.10931    33.373973    33.378891    33.347164    2.4882135    15.862537    56.239908 
   12000    301.58813   -10189.092            0   -10132.293    -1534.226    33.457596    33.279554    33.409099    3.6004475    17.269483    54.686699 
   13000     301.5462    -10192.61            0    -10135.82    634.07329    33.223443    33.380516    33.202992    2.6875545    18.729726    53.307685 
   14000    308.02478   -10190.913            0   -10132.902    1834.5275    33.203873    33.401069    33.026423    2.1218462    20.158538    51.836243 
   15000    295.02096   -10189.786            0   -10134.225   -596.65338     33.27826    33.315952    33.362419    2.6963123    21.635475    50.482778 
   16000    292.95528   -10190.214            0   -10135.041    -569.5477     33.23446    33.273994    33.372655    3.5672677    23.092109    49.070734 
   17000    291.72356   -10192.539            0   -10137.598    1285.2753    33.261358    33.007105    33.358925    2.1361581     24.53152    47.620012 
   18000    309.10292   -10192.875            0   -10134.661    410.91635    33.329043    33.213654    33.277672    2.8043129    25.871018    45.992923 
   19000    301.38926   -10191.518            0   -10134.757   -1264.3793    33.478641    33.234014    33.237153    2.9783631    27.320831    44.576094 
   20000    294.63874   -10193.472            0   -10137.982   -577.13253    33.193689    33.309462    33.306794    2.1228481    28.881135    43.321704 
   21000    305.63486   -10194.781            0    -10137.22    653.18755    33.226482    33.452362    33.082599    2.2771078    30.243833    41.765295 
   22000    302.71949   -10193.895            0   -10136.883    275.54784    33.469888    33.166786    33.071392    2.2642297    31.740529    40.397038 
   23000    295.41931   -10193.859            0   -10138.222   -248.02389    33.270102     33.46685    33.066697    2.5636095    33.259595    39.043874 
   24000    308.34421   -10192.955            0   -10134.884   -116.50567    33.334775     33.19012    33.205941    2.3102212    34.836446    37.739484 
   25000    299.20702   -10194.431            0   -10138.081    142.14119    33.141339    33.341229    33.311818    2.4035443    36.315481    36.315482 
   26000    299.39999       -10194            0   -10137.613    220.93793    33.163623    33.311034    33.212385    2.3494097      37.6799    34.781447 
   27000    291.19603   -10194.069            0   -10139.227   -131.42477    33.209527    33.206787     33.33529    2.7582969    39.168656    33.365893 
   28000    299.75253   -10193.924            0   -10137.471   -331.13963     33.06343    33.474548    33.270108    3.7230856    40.632149    31.925262 
   29000    294.02002   -10194.621            0   -10139.247    375.99244    33.283107    33.149678     33.23039    2.5392458     42.11786    30.499141 
   30000     295.0744   -10193.509            0   -10137.937    99.783581    33.218183    33.435497    33.180878    2.3816592    43.595243    29.063496 
   31000    297.97898   -10193.664            0   -10137.545   -520.65072     33.27042    33.260685    33.344987    2.2104494    45.131769    27.661408 
   32000    301.72627   -10192.637            0   -10135.813   -713.91206    33.152456    33.446207    33.285706     2.171569    46.729325    26.285246 
   33000    299.24269   -10194.577            0    -10138.22    683.46143     33.11586    33.425094     33.23444    2.3479627    48.239003    24.850396 
   34000    296.74575   -10194.484            0   -10138.597    548.86736    33.258608    33.378937    33.070885    2.4659486    49.614861     23.34817 
   35000    288.70508   -10191.882            0   -10137.509   -1017.9152    33.323326     33.25587    33.313674    2.3276003    51.086151    21.894065 
   36000    308.03986   -10194.425            0   -10136.411   -921.51985     33.30496    33.232529    33.287943    2.2264965    52.479023    20.408509 
   37000    304.25697   -10194.818            0   -10137.517    774.59636    33.145379    33.050414    33.326787    2.5640516    53.884669    18.932452 
   38000    303.81608   -10195.006            0   -10137.787     1280.564    33.249222    33.316588    33.215483    2.6604076    55.372997     17.48621 
   39000     299.4254   -10194.488            0   -10138.097   -515.24235    33.305444    33.237932    33.252894    3.1323038    56.702369    15.992976 
   40000    286.92288   -10194.992            0   -10140.955   -1337.1358    33.364912    33.493731    33.150048    2.4905941    58.059124    14.514781 
   41000    306.48112   -10193.374            0   -10135.654    451.78928    33.274226    33.499612    32.957843    2.2897798    59.428692    13.045323 
   42000     299.4213   -10196.216            0   -10139.825      1107.63     33.16578    33.497848    33.055601    2.6576597    60.809858     11.58283 
   43000    287.01553   -10194.552            0   -10140.497   -282.16314    33.254022    33.549984    33.089778    2.6488149    62.196346    10.124987 
   44000      299.278   -10197.159            0   -10140.796   -1364.2125    33.106232    33.652429    33.064457    2.3743437     63.63874    8.6780101 
   45000    309.31885   -10196.954            0     -10138.7   -8.9333357    33.194447    33.549644    33.110189    2.5025858    65.009784    7.2233095 
   46000    311.70534    -10196.55            0   -10137.846    1104.9409    33.214944    33.543421    32.945859    2.5538343    66.348092    5.7693994 
   47000    295.13209   -10197.804            0   -10142.221    194.44686    33.106401    33.638156    33.101493    2.9717539    67.723537     4.322779 
   48000    303.45426   -10196.451            0   -10139.301   -598.73033    33.166307    33.658186     32.95186    2.9248123    69.104803    2.8793668 
   49000    306.17018   -10193.973            0   -10136.311   -208.44763     33.06046    33.521484    33.074535    3.2817743    70.557766    1.4399544 
   50000    308.72327    -10196.02            0   -10137.877    1415.1631    32.914457    33.522369    33.090493    2.4356637    72.045851            0 
Loop time of 72.0459 on 80 procs for 50000 steps with 1458 atoms

Performance: 59.962 ns/day, 0.400 hours/ns, 694.002 timesteps/s
99.2% CPU use with 80 MPI tasks x 1 OpenMP threads

MPI task timing breakdown:
Section |  min time  |  avg time  |  max time  |%varavg| %total
---------------------------------------------------------------
Pair    | 4.6276     | 6.0216     | 7.0716     |  19.6 |  8.36
Kspace  | 38.021     | 39.197     | 40.651     |   8.1 | 54.41
Neigh   | 0.13462    | 0.16934    | 0.19344    |   3.5 |  0.24
Comm    | 21.302     | 21.553     | 21.82      |   2.5 | 29.92
Output  | 0.002528   | 0.0025826  | 0.0038033  |   0.3 |  0.00
Modify  | 3.5771     | 4.174      | 4.4242     |  15.5 |  5.79
Other   |            | 0.9278     |            |       |  1.29

Nlocal:    18.225 ave 24 max 12 min
Histogram: 2 3 8 4 15 23 11 8 3 3
Nghost:    1819.1 ave 1870 max 1776 min
Histogram: 3 11 13 10 12 5 9 6 7 4
Neighs:    4148.4 ave 5396 max 2721 min
Histogram: 2 3 8 5 15 13 19 9 2 4

Total # of neighbors = 331872
Ave neighs/atom = 227.621
Neighbor list builds = 986
Dangerous builds = 6

# Stage 1: nvt_equilibriation
unfix int
restart         0
fix             int all nvt temp ${T1} ${T1} $(100*dt)
fix             int all nvt temp 300 ${T1} $(100*dt)
fix             int all nvt temp 300 300 $(100*dt)
fix             int all nvt temp 300 300 0.10000000000000000555
run             100000
PPPM initialization ...
  using 12-bit tables for long-range coulomb (../kspace.cpp:323)
  G vector (1/distance) = 0.266818
  grid = 30 30 30
  stencil order = 5
  estimated absolute RMS force accuracy = 0.000139708
  estimated relative force accuracy = 9.70221e-06
  using double precision MKL FFT
  3d grid and FFT values/proc = 2548 384
Per MPI rank memory allocation (min/avg/max) = 3.449 | 3.69 | 3.703 Mbytes
Step Temp E_pair E_mol TotEng Press Lx Ly Lz Fmax CPU CPULeft 
   50000    308.72327   -10196.013            0    -10137.87    1417.3632    32.914457    33.522369    33.090493    2.4357007            0            0 
   51000     309.0472   -10200.118            0   -10141.914    263.41871    32.914457    33.522369    33.090493    1.9617093    1.3832388    136.94076 
   52000    301.25478   -10196.485            0   -10139.749    257.71341    32.914457    33.522369    33.090493    2.6292483    2.7477589    134.64023 
   53000    295.54247   -10198.378            0   -10142.718     629.0003    32.914457    33.522369    33.090493    2.3371179    4.1013319    132.60973 
   54000    302.82084   -10198.205            0   -10141.174    501.38318    32.914457    33.522369    33.090493    2.7504419    5.4326379    130.38333 
   55000    291.05703   -10199.657            0   -10144.841   -273.13226    32.914457    33.522369    33.090493    2.2273089    6.6735029    126.79657 
   56000    302.50536   -10198.721            0   -10141.749   -185.58045    32.914457    33.522369    33.090493    2.7746514    7.9766779    124.96795 
   57000    303.17567   -10196.429            0   -10139.331    930.14076    32.914457    33.522369    33.090493    2.3198885     9.276058    123.23906 
   58000    294.48648   -10199.259            0   -10143.797    306.96346    32.914457    33.522369    33.090493    3.0813537    10.608569    121.99855 
   59000    301.13268   -10198.129            0   -10141.416   -387.66858    32.914457    33.522369    33.090493    2.3191714    11.910476    120.42816 
   60000    311.68581   -10196.486            0   -10137.785    394.66072    32.914457    33.522369    33.090493    2.5074992    13.297541    119.67788 
   61000    303.24483   -10197.744            0   -10140.633   -818.08142    32.914457    33.522369    33.090493    2.9601258    14.624337    118.32419 
   62000    297.97778   -10199.334            0   -10143.215    385.76754    32.914457    33.522369    33.090493    2.7175256    16.004177    117.36397 
   63000    298.33883   -10197.263            0   -10141.076   -184.77905    32.914457    33.522369    33.090493    2.1672409    17.358347    116.16741 
   64000    298.72018   -10200.117            0   -10143.858   -513.17105    32.914457    33.522369    33.090493    2.2390318    18.714356    114.95962 
   65000    300.18283   -10199.708            0   -10143.174    -307.9221    32.914457    33.522369    33.090493    2.5763819    19.989218    113.27224 
   66000    300.30582   -10198.424            0   -10141.866   -518.23116    32.914457    33.522369    33.090493    2.6443344    21.302037     111.8357 
   67000    298.58365   -10198.629            0   -10142.397    163.12938    32.914457    33.522369    33.090493    2.8003382    22.611035    110.39506 
   68000    313.30913   -10199.192            0   -10140.186   -296.49669    32.914457    33.522369    33.090493    2.4023373    23.934216    109.03366 
   69000    308.56471   -10198.668            0   -10140.556   -436.01524    32.914457    33.522369    33.090493     3.115012     25.19901    107.42736 
   70000    290.79365   -10199.522            0   -10144.756    555.93906    32.914457    33.522369    33.090493    3.1076791    26.480612    105.92245 
   71000    302.29503    -10198.87            0   -10141.938    739.52865    32.914457    33.522369    33.090493    2.0289626    27.764223    104.44637 
   72000    290.19649   -10198.818            0   -10144.165    271.23916    32.914457    33.522369    33.090493      2.63231    29.099237    103.17003 
   73000    298.62153   -10197.655            0   -10141.415    236.42427    32.914457    33.522369    33.090493     2.184069    30.430621    101.87643 
   74000    301.34219   -10198.928            0   -10142.176    141.64348    32.914457    33.522369    33.090493    2.1312875    31.669094    100.28547 
   75000    303.02131   -10199.234            0   -10142.165    440.31925    32.914457    33.522369    33.090493    2.5130128    32.934776    98.804331 
   76000    284.54385   -10198.747            0   -10145.158   -674.88885    32.914457    33.522369    33.090493    2.4600894    34.264962    97.523356 
   77000    299.09343    -10199.78            0   -10143.451    1035.5431    32.914457    33.522369    33.090493    3.0717463    35.546991    96.108533 
   78000    298.60972   -10201.202            0   -10144.965   -328.63273    32.914457    33.522369    33.090493    3.2952104    36.855593    94.771527 
   79000     306.5111   -10199.699            0   -10141.974    747.92639    32.914457    33.522369    33.090493    2.4511667    38.164998    93.438446 
   80000    299.77608    -10202.21            0   -10145.752   -963.08313    32.914457    33.522369    33.090493    2.2549142    39.511182     92.19276 
   81000    306.49618   -10202.351            0   -10144.628   -441.14902    32.914457    33.522369    33.090493    2.5614685    40.834747    90.890245 
   82000    300.75599   -10201.647            0   -10145.005    227.96869    32.914457    33.522369    33.090493    2.6441168    42.204186    89.683897 
   83000    298.49907   -10200.779            0   -10144.563   -203.15475    32.914457    33.522369    33.090493    2.1219867    43.603559     88.52844 
   84000     309.6304   -10201.148            0   -10142.835   -359.95568    32.914457    33.522369    33.090493    2.4321882    44.928841    87.214811 
   85000    292.65777   -10200.998            0   -10145.881   -798.49588    32.914457    33.522369    33.090493    2.4928732    46.187047    85.775946 
   86000    289.59482   -10202.617            0   -10148.077   -413.07164    32.914457    33.522369    33.090493    2.1089594    47.414981    84.293301 
   87000    309.08703   -10200.138            0   -10141.927   -372.29558    32.914457    33.522369    33.090493    2.9125124    48.682035    82.891034 
   88000    308.12925   -10203.582            0   -10145.551    113.28393    32.914457    33.522369    33.090493    2.2727103    49.967289    81.525578 
   89000    300.69663   -10201.277            0   -10144.646    396.46694    32.914457    33.522369    33.090493    2.4798722    51.247284     80.15601 
   90000    300.49965   -10201.725            0   -10145.131   -232.85924    32.914457    33.522369    33.090493    2.4225174    52.663352    78.995029 
   91000    308.18899   -10200.176            0   -10142.134   -591.12753    32.914457    33.522369    33.090493    2.9438012    53.958377    77.647422 
   92000    298.83086   -10201.651            0   -10145.372    354.12473    32.914457    33.522369    33.090493    2.3156638    55.223384    76.260865 
   93000    303.71932   -10201.096            0   -10143.896   -549.52599    32.914457    33.522369    33.090493    2.0993142    56.567782    74.985199 
   94000    310.62933   -10200.523            0   -10142.022   -1204.5343    32.914457    33.522369    33.090493    2.2137897    57.813113    73.580327 
   95000    297.54121    -10198.19            0   -10142.154    -330.6065    32.914457    33.522369    33.090493    2.1986565    59.021796    72.137752 
   96000    293.37923   -10200.242            0   -10144.989   -558.31162    32.914457    33.522369    33.090493    2.2319675    60.351478    70.847388 
   97000     302.3705   -10200.537            0   -10143.591   -327.53465    32.914457    33.522369    33.090493    2.4132595    61.560692    69.419505 
   98000    299.04952   -10201.561            0    -10145.24   -1041.7355    32.914457    33.522369    33.090493    2.7900222    62.809189    68.043289 
   99000    299.19118   -10200.492            0   -10144.145    672.19645    32.914457    33.522369    33.090493     2.172592    64.120457    66.737619 
  100000    292.72779   -10201.261            0   -10146.131    672.10597    32.914457    33.522369    33.090493    2.7199237    65.381984    65.381985 
  101000    306.87058   -10200.704            0    -10142.91    363.47505    32.914457    33.522369    33.090493    2.3236768    66.692037    64.076664 
  102000    301.52335   -10200.144            0   -10143.358   -512.68776    32.914457    33.522369    33.090493    2.2536403    67.923285    62.698418 
  103000    291.18382    -10200.41            0    -10145.57   -995.83164    32.914457    33.522369    33.090493    2.3392834    69.224801    61.388032 
  104000    301.44033   -10202.332            0   -10145.561   -312.96912    32.914457    33.522369    33.090493    2.2268784    70.569507    60.114766 
  105000     293.4169   -10200.282            0   -10145.022   -923.89068    32.914457    33.522369    33.090493    2.2526179    71.842644    58.780346 
  106000    303.28665   -10199.151            0   -10142.032   -627.48546    32.914457    33.522369    33.090493    2.1180979    73.137017      57.4648 
  107000    305.36036    -10202.22            0   -10144.711   -85.968728    32.914457    33.522369    33.090493    2.7067972    74.366111    56.100751 
  108000    299.18005   -10199.632            0   -10143.287   -96.922823    32.914457    33.522369    33.090493    2.5319974     75.68085    54.803375 
  109000    306.11804   -10199.387            0   -10141.735    -441.9547    32.914457    33.522369    33.090493    2.5048377    76.955865    53.477805 
  110000    305.35381   -10204.495            0   -10146.987   -25.548874    32.914457    33.522369    33.090493    2.5356155    78.225533    52.150356 
  111000    287.07841   -10202.536            0    -10148.47   -123.77022    32.914457    33.522369    33.090493    2.5934842    79.593077    50.887378 
  112000    296.49413   -10201.759            0    -10145.92   -414.18723    32.914457    33.522369    33.090493     2.571295    80.945487    49.611751 
  113000    290.38299   -10200.246            0   -10145.557   -200.46187    32.914457    33.522369    33.090493    2.9663185     82.31353    48.342867 
  114000    299.70156   -10203.201            0   -10146.758   -557.92079    32.914457    33.522369    33.090493    2.1701665    83.616061    47.034035 
  115000    299.10402   -10202.378            0   -10146.047    1233.1799    32.914457    33.522369    33.090493    2.7902965    84.887794    45.708813 
  116000    304.55629   -10201.159            0   -10143.801    51.262757    32.914457    33.522369    33.090493    2.6261104    86.201562    44.406866 
  117000    302.89022   -10202.187            0   -10145.143   -324.72117    32.914457    33.522369    33.090493    2.6281047    87.461536     43.07807 
  118000    290.60743   -10201.503            0   -10146.773   -187.60475    32.914457    33.522369    33.090493    2.6539606    88.660387    41.722536 
  119000    302.78758   -10205.286            0   -10148.261   -176.45769    32.914457    33.522369    33.090493    2.4478433    90.025385    40.446188 
  120000     298.8635   -10202.309            0   -10146.023    407.35095    32.914457    33.522369    33.090493     2.942725    91.312678    39.134005 
  121000    298.71106   -10201.506            0   -10145.249   -632.60615    32.914457    33.522369    33.090493    2.0420825     92.66075    37.847349 
  122000    283.43728   -10203.934            0   -10150.554   -74.954759    32.914457    33.522369    33.090493    2.6358573    93.979761    36.547685 
  123000    290.71131   -10202.142            0   -10147.392   -497.52098    32.914457    33.522369    33.090493    2.8007333    95.281734     35.24119 
  124000    305.12827   -10201.291            0   -10143.825   -907.13719    32.914457    33.522369    33.090493    2.4769402    96.609507    33.943881 
  125000    300.80545   -10201.962            0   -10145.311    415.44922    32.914457    33.522369    33.090493    2.4420549    97.852155    32.617385 
  126000    297.31172   -10199.573            0    -10143.58   -361.93465    32.914457    33.522369    33.090493    2.4728316    99.168726     31.31644 
  127000    301.35981   -10202.862            0   -10146.106   -919.04639    32.914457    33.522369    33.090493    2.8174498    100.42236     29.99629 
  128000      293.564   -10201.449            0   -10146.161   -222.27931    32.914457    33.522369    33.090493    2.5269225    101.63427    28.666076 
  129000    299.73426   -10199.636            0   -10143.187   -1502.5466    32.914457    33.522369    33.090493    2.7193666     102.8786    27.347477 
  130000    307.06827   -10201.609            0   -10143.778   -11.665255    32.914457    33.522369    33.090493    2.7040598    104.12198    26.030496 
  131000    284.57288   -10204.448            0   -10150.854   -1244.0423    32.914457    33.522369    33.090493    1.9542861    105.37624    24.717884 
  132000    309.19131   -10201.688            0   -10143.457    177.58518    32.914457    33.522369    33.090493    2.3721427    106.69791    23.421492 
  133000    301.50661   -10203.392            0   -10146.608   -576.86942    32.914457    33.522369    33.090493    2.0012345    107.99627    22.119718 
  134000    303.55412   -10199.624            0   -10142.455    1590.6728    32.914457    33.522369    33.090493    2.6048023    109.24735    20.809019 
  135000    287.32714   -10205.143            0    -10151.03    408.61804    32.914457    33.522369    33.090493    2.8447369    110.47423    19.495452 
  136000    288.66807   -10202.977            0   -10148.611    248.19127    32.914457    33.522369    33.090493    2.1623852    111.70305    18.184218 
  137000    294.07346   -10202.624            0    -10147.24    89.590265    32.914457    33.522369    33.090493    2.4370274    112.97673     16.88158 
  138000    296.18794    -10203.69            0   -10147.909   -1026.2414    32.914457    33.522369    33.090493    2.1317482    114.18776    15.571059 
  139000    313.86192   -10203.637            0   -10144.527   -20.190414    32.914457    33.522369    33.090493    2.5868553    115.41953    14.265335 
  140000    298.07758   -10202.473            0   -10146.335   -352.47859    32.914457    33.522369    33.090493    2.1803752     116.7385    12.970945 
  141000    294.00893   -10201.602            0   -10146.231    738.13149    32.914457    33.522369    33.090493    2.2995673    118.06532     11.67679 
  142000    295.30266   -10205.663            0   -10150.048   -19.002572    32.914457    33.522369    33.090493    2.1673882    119.36004    10.379134 
  143000    297.81899   -10203.141            0   -10147.053   -140.01602    32.914457    33.522369    33.090493    3.2719539    120.79468    9.0920732 
  144000    293.61609   -10202.832            0   -10147.535   -3.9951824    32.914457    33.522369    33.090493    2.4323708     122.1314    7.7956216 
  145000    301.62981   -10202.874            0   -10146.068   -361.35743    32.914457    33.522369    33.090493    2.4813411    123.45792    6.4977856 
  146000    293.53946   -10204.216            0   -10148.933    163.49994    32.914457    33.522369    33.090493    2.3364402    124.71282    5.1963676 
  147000    308.19508   -10201.257            0   -10143.214   -9.8414866    32.914457    33.522369    33.090493    2.3656928    125.97523    3.8961413 
  148000    304.11341     -10204.6            0   -10147.325     7.397542    32.914457    33.522369    33.090493    2.3241161    127.20736    2.5960685 
  149000     302.9114   -10206.796            0   -10149.748    246.85194    32.914457    33.522369    33.090493    2.5316984    128.46902    1.2976668 
  150000    301.16567   -10203.282            0   -10146.563    298.41255    32.914457    33.522369    33.090493    2.6694532    129.75566            0 
Loop time of 129.756 on 80 procs for 100000 steps with 1458 atoms

Performance: 66.587 ns/day, 0.360 hours/ns, 770.679 timesteps/s
99.3% CPU use with 80 MPI tasks x 1 OpenMP threads

MPI task timing breakdown:
Section |  min time  |  avg time  |  max time  |%varavg| %total
---------------------------------------------------------------
Pair    | 9.7257     | 12.738     | 16.729     |  37.3 |  9.82
Kspace  | 59.593     | 62.505     | 65.602     |  17.2 | 48.17
Neigh   | 0.2276     | 0.29986    | 0.36974    |   5.2 |  0.23
Comm    | 51.571     | 52.73      | 55.397     |  11.0 | 40.64
Output  | 0.0050328  | 0.0050648  | 0.0060933  |   0.2 |  0.00
Modify  | 0.85546    | 0.94179    | 1.0409     |   3.8 |  0.73
Other   |            | 0.5359     |            |       |  0.41

Nlocal:    18.225 ave 26 max 12 min
Histogram: 4 3 16 8 6 29 7 6 0 1
Nghost:    1818.79 ave 1870 max 1787 min
Histogram: 3 10 18 16 12 11 6 2 0 2
Neighs:    4172.98 ave 6054 max 2716 min
Histogram: 4 3 15 11 16 16 12 2 0 1

Total # of neighbors = 333838
Ave neighs/atom = 228.97
Neighbor list builds = 1632
Dangerous builds = 0

# Final Commands
variable final_energy equal etotal
print "final_energy: ${final_energy}"
final_energy: -10146.5625404003
print "END_OF_COMP"
END_OF_COMP
Total wall time: 0:03:22
