LAMMPS (7 Aug 2019)
  using 1 OpenMP thread(s) per MPI task
# Input written to comply with LAMMPS 2017-08-11 00:00:00

# Atomic Configuration
units           metal
boundary        p p p
box tilt large
atom_style      charge
read_data       4x4x4.lmp
  triclinic box = (0 0 0) to (41.1212 41.2532 41.1484) with tilt (-0.0423245 -0.130363 -0.117962)
  4 by 5 by 4 MPI processor grid
  reading atoms ...
  3456 atoms
  read_data CPU = 0.00548005 secs
group           lithium type 1
1088 atoms in group lithium
group           scandium type 2
320 atoms in group scandium
group           chloride type 3
2048 atoms in group chloride
variable        T1 equal 300
variable	dt equal 0.001

# Potential Setup
pair_style  buck/coul/long 12.0
pair_coeff * * 0.0 1.0 0.0
pair_coeff 1 1     360.530000  0.161000   0.000000 # Li Li
pair_coeff 1 3     421.040000  0.344000   0.000000 # Li Cl
pair_coeff 3 3    1227.200000  0.321000  14.530000 # Cl Cl
pair_coeff 2 3   12131.350000  0.250700   0.000000 # Sc Cl

kspace_style pppm 1e-05

# General Setup
timestep        0.001

# Thermodynamic Information Output
thermo_style custom step temp epair emol etotal press lx ly lz fmax cpu cpuremain
thermo          1000

# Intial Atom Velocity
velocity all create ${T1} 80800 dist gaussian rot yes
velocity all create 300 80800 dist gaussian rot yes

# Stage 0: npt_equilibriation
restart         0
fix             int all npt aniso 1.0 1.0 0.1 temp ${T1} ${T1} $(100*dt)
fix             int all npt aniso 1.0 1.0 0.1 temp 300 ${T1} $(100*dt)
fix             int all npt aniso 1.0 1.0 0.1 temp 300 300 $(100*dt)
fix             int all npt aniso 1.0 1.0 0.1 temp 300 300 0.10000000000000000555
run             50000
PPPM initialization ...
  using 12-bit tables for long-range coulomb (../kspace.cpp:323)
  G vector (1/distance) = 0.271552
  grid = 40 40 40
  stencil order = 5
  estimated absolute RMS force accuracy = 0.000111037
  estimated relative force accuracy = 7.71111e-06
  using double precision MKL FFT
  3d grid and FFT values/proc = 4335 800
Neighbor list info ...
  update every 1 steps, delay 10 steps, check yes
  max neighbors/atom: 2000, page size: 100000
  master list distance cutoff = 14
  ghost atom cutoff = 14
  binsize = 7, bins = 6 6 6
  1 neighbor lists, perpetual/occasional/extra = 1 0 0
  (1) pair buck/coul/long, perpetual
      attributes: half, newton on
      pair build: half/bin/newton/tri
      stencil: half/bin/3d/newton/tri
      bin: standard
Per MPI rank memory allocation (min/avg/max) = 3.61 | 3.662 | 3.859 Mbytes
Step Temp E_pair E_mol TotEng Press Lx Ly Lz Fmax CPU CPULeft 
       0          300   -23371.447            0   -23237.469   -714.35982    41.121181    41.253231     41.14841    2.7005432            0            0 
    1000    313.43789   -24081.512            0   -23941.533   -187.18641    44.659686    44.652514    45.097184    2.5385016    1.8974431     92.97471 
    2000    292.74138   -24113.082            0   -23982.346    204.77916    44.292707    44.775791    44.769592    2.8094186    3.7756519    90.615675 
    3000    304.29315   -24125.686            0    -23989.79     160.5462    44.179144    44.839749    44.820215    3.0742305    5.6644189    88.742563 
    4000    293.99708   -24127.652            0   -23996.355   -240.43261    44.340914     44.68063    44.610801    2.6263906     7.538269    86.690094 
    5000    306.67477   -24132.881            0   -23995.922   -73.560268    44.183217    44.670936    44.490513    2.8201375    9.4769139    85.292225 
    6000    298.83058   -24143.005            0    -24009.55    621.67423    44.501101    44.460798    44.259623    2.3210356    11.429852    83.818922 
    7000     305.5436   -24144.659            0   -24008.205     299.1527    44.318059    44.456125    44.409903     2.815541    13.606951    83.585562 
    8000    295.33206   -24144.353            0   -24012.459   -634.92679    44.574757    44.311534    44.491877    2.5194044    15.913886    83.547907 
    9000     294.5458   -24149.458            0   -24017.916   -231.52493    44.361732     44.26676    44.465816    2.7335858    17.953877    81.789888 
   10000    308.42968   -24152.964            0   -24015.221    615.59558    44.281804    44.068755    44.581701    2.5978728    19.860182    79.440732 
   11000    302.56237   -24154.708            0   -24019.585    345.89173    44.233365    44.301663    44.391645    2.3262986    21.739896    77.077813 
   12000    301.07571   -24154.837            0   -24020.378   -417.86165    44.265855    44.164277    44.474495    2.5181578    23.690539    75.020044 
   13000    300.99557   -24157.673            0    -24023.25    -759.2547     44.38621    44.260288    44.445761    2.6983929    25.649134    73.001385 
   14000    303.13224   -24160.002            0   -24024.625    181.42835    44.286933    44.004483    44.508885    3.0850915     27.55165    70.847103 
   15000    298.59085   -24158.346            0   -24024.997    496.78406    44.224691    44.273174    44.399955    2.4918506    29.513934    68.865849 
   16000    308.94121   -24158.741            0   -24020.769   -16.547195    44.307813    44.175408    44.445235    2.3093721    31.437189    66.804029 
   17000    302.04851   -24154.909            0   -24020.016   -341.18023    44.200994    44.267589    44.584411    3.1256928    33.308778    64.658218 
   18000    296.64299   -24161.352            0   -24028.873    86.064517    44.248014    44.122941    44.472252    2.3570455    35.305123    62.764665 
   19000    306.36772   -24162.067            0   -24025.245    120.50424    44.250301    44.225954    44.360007    2.2699639    37.201071    60.696486 
   20000    299.23782   -24162.751            0   -24029.113   -58.886465    44.204775    44.275795    44.342994    2.9026308    39.085006     58.62751 
   21000    306.80421   -24160.494            0   -24023.478   -6.8393289     44.16675    44.287285    44.413711    2.3558662    40.960281    56.564199 
   22000    296.65592   -24162.692            0   -24030.207   -451.26473    44.132305    44.092098    44.616765      2.52424    42.854852     54.54254 
   23000    311.68402   -24161.507            0   -24022.311    113.39792    44.231656     44.08949     44.48789    2.9823308    44.642121    52.405969 
   24000    294.89503   -24164.203            0   -24032.505    96.216012    44.201886    44.211958    44.523555    2.6418906    46.489639    50.363777 
   25000     301.6724   -24165.222            0   -24030.497   -64.166455    44.140644    44.357087    44.432907    3.2083704    48.381897    48.381898 
   26000    297.98063   -24166.695            0   -24033.619   -137.77211    44.200496     44.36015      44.4354    2.5981515    50.258955    46.392882 
   27000    296.93945   -24167.412            0     -24034.8   -110.52154    44.158575    44.153767    44.459137     2.906666    52.382143    44.621826 
   28000    297.69204   -24161.648            0     -24028.7    222.34312    44.029855    44.310065    44.516525    3.2774006    54.623358    42.918353 
   29000    297.17504   -24167.493            0   -24034.776    230.81507    44.232939    44.182448    44.509586    3.1195596    56.718524    41.072035 
   30000    303.85395   -24163.486            0   -24027.787    -413.4658     44.19845    44.301476     44.47339    2.7579832    58.598443    39.065629 
   31000    302.48691   -24165.494            0   -24030.405   -168.52781    44.136109     44.25117    44.606814    2.6479456    60.456936    37.054252 
   32000    307.61807   -24164.428            0   -24027.047      200.807    44.081702    44.365006    44.587481    2.5383372    62.291887    35.039187 
   33000    299.48401   -24168.981            0   -24035.233    115.73087    44.164131    44.166219    44.465913    3.1761753    64.148626    33.046262 
   34000    298.52353   -24168.566            0   -24035.248   -269.73785    44.163307    43.975069    44.744118    2.7209519    65.963165     31.04149 
   35000    303.49701   -24165.587            0   -24030.047   -109.28936    44.179453    44.092405    44.658798    2.7690538    67.821634    29.066415 
   36000    300.26601    -24168.77            0   -24034.673    260.21664    44.051708    44.193287    44.572032     2.569184    69.682182    27.098627 
   37000    295.74927   -24172.645            0   -24040.565    568.84759    44.123685    44.141285    44.478314    3.0074212    71.503701    25.122922 
   38000    297.58812    -24170.28            0   -24037.379   -328.29097    44.159716    43.983583    44.675966     2.790039    73.357628    23.165567 
   39000    300.79712   -24169.315            0   -24034.981   -592.56781    44.055416    44.180605    44.684733    2.6067094    75.279912    21.232796 
   40000     296.4962   -24173.273            0   -24040.859    242.71847    44.089802    43.959555    44.625695    2.3854841    77.191679     19.29792 
   41000    302.92569   -24174.994            0   -24039.709    611.46018    43.946915    44.075508    44.620906     2.581402    78.979602    17.336986 
   42000    299.48093    -24174.96            0   -24041.214   -127.83604    43.986185    44.202943    44.610236    3.4214246    80.849498    15.399905 
   43000    305.72634   -24171.266            0   -24034.731   -919.90651    44.111079    44.093366    44.631763    2.8361043    82.734862    13.468466 
   44000    298.29382   -24173.033            0   -24039.817   -72.376616     44.16534    43.914921    44.541126     3.421178    84.564133    11.531473 
   45000    302.72163   -24171.751            0   -24036.557    1034.1112    44.036296    43.957238    44.652081    2.8619612    86.423982    9.6026648 
   46000    300.37005   -24177.864            0   -24043.721    518.08557    44.024984    44.075626    44.516578    2.6859274    88.272214    7.6758448 
   47000    298.96386   -24172.375            0    -24038.86    -403.6355    44.023949     44.18811    44.415205    2.4892822    90.038899    5.7471638 
   48000    300.15154   -24172.646            0     -24038.6   -635.29234    44.159497    44.258481      44.4517    3.0907496    92.133088    3.8388787 
   49000    302.36439   -24177.943            0   -24042.909    294.68638    44.086141    44.259861    44.338731    2.6197203    94.349821    1.9255066 
   50000    302.92199   -24177.519            0   -24042.236    570.96043    44.081089    44.211455     44.32938    2.7318149    96.480059            0 
Loop time of 96.4801 on 80 procs for 50000 steps with 3456 atoms

Performance: 44.776 ns/day, 0.536 hours/ns, 518.242 timesteps/s
99.0% CPU use with 80 MPI tasks x 1 OpenMP threads

MPI task timing breakdown:
Section |  min time  |  avg time  |  max time  |%varavg| %total
---------------------------------------------------------------
Pair    | 11.802     | 13.772     | 15.162     |  19.3 | 14.27
Kspace  | 46.87      | 48.305     | 50.361     |  10.6 | 50.07
Neigh   | 0.33926    | 0.39898    | 0.44957    |   3.2 |  0.41
Comm    | 24.841     | 24.947     | 25.09      |   1.0 | 25.86
Output  | 0.0025587  | 0.0026081  | 0.0036159  |   0.2 |  0.00
Modify  | 7.7246     | 7.8844     | 8.1027     |   2.1 |  8.17
Other   |            | 1.169      |            |       |  1.21

Nlocal:    43.2 ave 49 max 30 min
Histogram: 1 0 1 2 5 12 17 19 19 4
Nghost:    2226.66 ave 2267 max 2191 min
Histogram: 5 4 6 15 18 9 9 9 2 3
Neighs:    9904.26 ave 11260 max 6955 min
Histogram: 1 0 2 1 11 10 15 15 14 11

Total # of neighbors = 792341
Ave neighs/atom = 229.265
Neighbor list builds = 1073
Dangerous builds = 8

# Stage 1: nvt_equilibriation
unfix int
restart         0
fix             int all nvt temp ${T1} ${T1} $(100*dt)
fix             int all nvt temp 300 ${T1} $(100*dt)
fix             int all nvt temp 300 300 $(100*dt)
fix             int all nvt temp 300 300 0.10000000000000000555
run             100000
PPPM initialization ...
  using 12-bit tables for long-range coulomb (../kspace.cpp:323)
  G vector (1/distance) = 0.266857
  grid = 40 40 40
  stencil order = 5
  estimated absolute RMS force accuracy = 0.000139351
  estimated relative force accuracy = 9.67739e-06
  using double precision MKL FFT
  3d grid and FFT values/proc = 4335 800
Per MPI rank memory allocation (min/avg/max) = 3.596 | 3.842 | 3.85 Mbytes
Step Temp E_pair E_mol TotEng Press Lx Ly Lz Fmax CPU CPULeft 
   50000    302.92199   -24177.504            0   -24042.221    572.92763    44.081089    44.211455     44.32938    2.7318141            0            0 
   51000    304.08178   -24178.887            0   -24043.086    464.57207    44.081089    44.211455     44.32938    2.4028094    1.7355051    171.81501 
   52000     299.5834   -24175.899            0   -24042.107   -61.471771    44.081089    44.211455     44.32938    2.4208611     3.262851    159.87975 
   53000    301.29392   -24178.742            0   -24044.186    455.50228    44.081089    44.211455     44.32938    2.4387146    4.8209529    155.87752 
   54000    299.16468   -24172.373            0   -24038.768    524.80097    44.081089    44.211455     44.32938    2.5939598    6.4298329    154.31602 
   55000    293.75989   -24179.758            0   -24048.566  -0.79463331    44.081089    44.211455     44.32938    2.9584688      8.03759    152.71421 
   56000    307.88335   -24175.731            0   -24038.232    716.24472    44.081089    44.211455     44.32938    2.7126603    9.6354361    150.95518 
   57000    307.18129   -24179.046            0   -24041.861   -267.60888    44.081089    44.211455     44.32938    2.6550423    11.356986    150.88568 
   58000    301.88812   -24181.941            0    -24047.12    192.93067    44.081089    44.211455     44.32938     2.755216    12.991307    149.40004 
   59000    305.27746   -24179.432            0   -24043.097    63.900415    44.081089    44.211455     44.32938    2.6871333    14.592125    147.54261 
   60000    296.88072   -24177.369            0   -24044.784    176.49433    44.081089    44.211455     44.32938    2.6381381    16.195552    145.75998 
   61000    300.58333   -24176.482            0   -24042.243    607.79887    44.081089    44.211455     44.32938    3.1136565    17.806644    144.07195 
   62000    299.79824   -24182.248            0    -24048.36    1046.3256    44.081089    44.211455     44.32938    2.4226759    19.386405    142.16698 
   63000    305.35903   -24181.563            0   -24045.192    1226.5669    44.081089    44.211455     44.32938    2.8577766    20.956418     140.2468 
   64000    294.73387   -24181.066            0    -24049.44   -190.75735    44.081089    44.211455     44.32938    2.6246151    22.583828    138.72923 
   65000    302.52411   -24180.785            0    -24045.68    65.163531    44.081089    44.211455     44.32938    2.9332862    24.245859     137.3932 
   66000    312.43461   -24179.686            0   -24040.155   -395.38614    44.081089    44.211455     44.32938    2.6397588    25.928442    136.12433 
   67000    299.74249   -24181.265            0   -24047.402    590.42924    44.081089    44.211455     44.32938    2.7822698    27.520585    134.36521 
   68000    299.25728   -24183.564            0   -24049.918    58.721853    44.081089    44.211455     44.32938    2.8017211    29.083308    132.49063 
   69000    304.36129   -24180.522            0   -24044.596   -60.223299    44.081089    44.211455     44.32938    2.6606464     30.62255    130.54877 
   70000    297.29615   -24182.449            0   -24049.679    196.14153    44.081089    44.211455     44.32938    3.0461938    32.191115    128.76446 
   71000    303.20352   -24182.819            0    -24047.41    60.762915    44.081089    44.211455     44.32938    2.6132081    33.859984    127.37804 
   72000     300.4943     -24182.1            0   -24047.901   -200.72399    44.081089    44.211455     44.32938     3.364059    35.651117    126.39942 
   73000    305.43652   -24179.961            0   -24043.555    645.40443    44.081089    44.211455     44.32938    2.2655957    37.494339    125.52453 
   74000    298.02328   -24183.062            0   -24049.966    385.34813    44.081089    44.211455     44.32938    3.1929128    39.298358     124.4448 
   75000    291.27441   -24181.637            0   -24051.556   -897.65228    44.081089    44.211455     44.32938    2.7145968    40.927821    122.78347 
   76000    304.68093   -24180.222            0   -24044.153   -189.80192    44.081089    44.211455     44.32938    3.5847096    42.653656    121.39887 
   77000    294.95397   -24180.316            0   -24048.592    540.60613    44.081089    44.211455     44.32938     2.885262    44.244943    119.62522 
   78000    298.24996   -24181.549            0   -24048.352   -28.246408    44.081089    44.211455     44.32938    2.4683823    45.848477    117.89609 
   79000    295.33488     -24183.8            0   -24051.905   -713.08756    44.081089    44.211455     44.32938    2.6743577    47.491498    116.27229 
   80000    304.15444   -24179.072            0   -24043.238    13.450382    44.081089    44.211455     44.32938    2.2049604    49.093146    114.55068 
   81000    288.57446   -24185.671            0   -24056.795    -70.02576    44.081089    44.211455     44.32938    2.7731498     50.66226    112.76439 
   82000    303.85756    -24181.55            0   -24045.849   -106.81576    44.081089    44.211455     44.32938     3.253685    52.264122    111.06126 
   83000    300.41553   -24182.333            0    -24048.17    83.384513    44.081089    44.211455     44.32938    2.3617931    53.918446    109.47079 
   84000    295.79744   -24185.197            0   -24053.096   -494.49381    44.081089    44.211455     44.32938    2.6583877     55.54659    107.82574 
   85000    300.75418   -24183.944            0   -24049.629    282.62187    44.081089    44.211455     44.32938    2.9282908    57.125726    106.09064 
   86000    298.73788   -24183.937            0   -24050.523   -294.81698    44.081089    44.211455     44.32938    2.3988922    58.758547    104.45964 
   87000    298.67571    -24186.09            0   -24052.704   -50.171443    44.081089    44.211455     44.32938    3.7640421    60.350147    102.75836 
   88000    306.00899   -24183.652            0    -24046.99    1.9607725    44.081089    44.211455     44.32938    2.6084702    61.942961    101.06483 
   89000    300.80148    -24186.28            0   -24051.944    188.46644    44.081089    44.211455     44.32938    2.7506564    63.491302     99.30691 
   90000    295.90491   -24188.797            0   -24056.647    114.72149    44.081089    44.211455     44.32938    2.4522489    65.071968    97.607954 
   91000    302.35325   -24183.198            0   -24048.169   -114.47015    44.081089    44.211455     44.32938    2.5424908    66.692694    95.972415 
   92000    308.77563   -24184.186            0   -24046.289    470.69183    44.081089    44.211455     44.32938    2.7362124    68.291237    94.306948 
   93000    304.19938   -24186.007            0   -24050.154   -50.459595    44.081089    44.211455     44.32938    2.6268043    69.889839    92.644672 
   94000    306.69839   -24185.811            0   -24048.841   -286.01809    44.081089    44.211455     44.32938    2.7680387    71.490462    90.987862 
   95000    306.31047   -24182.032            0   -24045.235    -906.1138    44.081089    44.211455     44.32938    3.0697407    73.071648    89.309793 
   96000    297.11035   -24186.563            0   -24053.875   -596.71252    44.081089    44.211455     44.32938    2.8501724    74.727006    87.723008 
   97000    304.59676   -24181.595            0   -24045.564   -462.11082    44.081089    44.211455     44.32938    2.5694855    76.543047    86.314501 
   98000     302.3612   -24187.242            0   -24052.209   -436.59304    44.081089    44.211455     44.32938    3.1673125    78.372771    84.903836 
   99000    306.49036   -24187.374            0   -24050.498    227.69395    44.081089    44.211455     44.32938    2.4121882     80.21288    83.486876 
  100000    301.79972   -24187.756            0   -24052.974    39.194631    44.081089    44.211455     44.32938    2.8632672    81.822382    81.822383 
  101000     303.2428   -24183.426            0       -24048   -289.96827    44.081089    44.211455     44.32938    2.5196276    83.434744    80.162794 
  102000    298.20364   -24186.204            0   -24053.028     17.28991    44.081089    44.211455     44.32938    3.1293644    85.032022    78.491098 
  103000     292.7053   -24182.898            0   -24052.177   -163.27654    44.081089    44.211455     44.32938    2.6767897    86.626908    76.820089 
  104000    295.29545   -24185.901            0   -24054.023    -109.3503    44.081089    44.211455     44.32938    3.0239015    88.182016    75.118015 
  105000     307.9036   -24184.817            0   -24047.309   -429.88405    44.081089    44.211455     44.32938    3.0148191    89.796448    73.469822 
  106000    303.77109   -24183.226            0   -24047.564   -191.42573    44.081089    44.211455     44.32938    2.5380896      91.3241    71.754651 
  107000    299.78212   -24183.299            0   -24049.418   -981.63328    44.081089    44.211455     44.32938    2.2866528    92.936026    70.109634 
  108000    298.53592   -24190.287            0   -24056.963   -1017.1653    44.081089    44.211455     44.32938    2.2794669    94.513828    68.441049 
  109000    294.90523   -24185.425            0   -24053.723   -399.60845    44.081089    44.211455     44.32938    2.2219876    96.101747    66.782571 
  110000    301.35761   -24183.523            0   -24048.938   -330.50049    44.081089    44.211455     44.32938    2.5804243    97.722551    65.148368 
  111000    299.52598   -24185.343            0   -24051.576   -172.19601    44.081089    44.211455     44.32938    3.1290882    99.261443    63.462235 
  112000    303.07242   -24185.512            0   -24050.162    29.827257    44.081089    44.211455     44.32938    2.3458576    100.88319    61.831633 
  113000    302.14712   -24186.647            0    -24051.71    327.51373    44.081089    44.211455     44.32938    2.4601954    102.44279    60.164811 
  114000    300.40138   -24187.418            0   -24053.261   -219.21036    44.081089    44.211455     44.32938    3.1639121    104.06074    58.534166 
  115000    299.81021   -24188.219            0   -24054.325   -307.06011    44.081089    44.211455     44.32938    2.3586867    105.64025    56.883211 
  116000    294.66759   -24190.515            0   -24058.918    62.434363    44.081089    44.211455     44.32938    3.0938867    107.22041    55.234756 
  117000    304.43715   -24188.336            0   -24052.377   -128.77114    44.081089    44.211455     44.32938    2.4610855    108.84987    53.612625 
  118000    299.54256    -24183.29            0   -24049.516    25.721998    44.081089    44.211455     44.32938    2.5541923     110.4261    51.965223 
  119000    297.73074   -24189.814            0    -24056.85   -571.80481    44.081089    44.211455     44.32938    2.7472754    111.96999    50.305358 
  120000    297.99628    -24185.41            0   -24052.327   -697.83197    44.081089    44.211455     44.32938     2.410182    113.58011    48.677191 
  121000    298.83332    -24186.79            0   -24053.333   -799.95426    44.081089    44.211455     44.32938    2.8615707    115.27171    47.082813 
  122000    300.63563   -24187.213            0   -24052.951   -231.06729    44.081089    44.211455     44.32938    2.8387552    117.14427    45.556107 
  123000    305.08325   -24188.311            0   -24052.062    41.327753    44.081089    44.211455     44.32938    2.6296396    119.00252    44.014633 
  124000    305.15818   -24188.328            0   -24052.047    217.90407    44.081089    44.211455     44.32938    2.3751575    120.74708     42.42465 
  125000    303.17514   -24184.069            0   -24048.672   -337.63816    44.081089    44.211455     44.32938     3.350812    122.41001    40.803338 
  126000     293.3132   -24190.084            0   -24059.092    206.65842    44.081089    44.211455     44.32938    3.0364058    123.99852    39.157429 
  127000    299.57567   -24188.519            0    -24054.73    296.39962    44.081089    44.211455     44.32938    2.8632229      125.629    37.525545 
  128000    307.67364   -24188.816            0   -24051.411   -21.126877    44.081089    44.211455     44.32938    3.4701665    127.18025    35.871354 
  129000    291.30674   -24190.721            0   -24060.625   -505.07725    44.081089    44.211455     44.32938    2.4588808    128.77709    34.231884 
  130000    295.44677    -24186.67            0   -24054.725    42.196489    44.081089    44.211455     44.32938    2.7721899    130.39846    32.599616 
  131000    304.61243    -24186.13            0   -24050.092   -125.63977    44.081089    44.211455     44.32938    2.5442831    132.00618    30.964413 
  132000     291.0453   -24189.435            0   -24059.456   -522.31128    44.081089    44.211455     44.32938    2.8636994    133.51409    29.307971 
  133000    300.92925   -24184.678            0   -24050.284   -196.16693    44.081089    44.211455     44.32938    2.4228976    135.13316    27.677876 
  134000    299.96866    -24185.64            0   -24051.676    312.55841    44.081089    44.211455     44.32938    2.9170423     136.6623    26.030915 
  135000    301.28676   -24189.642            0   -24055.089    14.500547    44.081089    44.211455     44.32938    2.6940379    138.27627    24.401695 
  136000    302.80024   -24185.971            0   -24050.743   -489.06837    44.081089    44.211455     44.32938    2.4620228     139.8862    22.772172 
  137000    302.75226    -24187.82            0   -24052.613   -658.90093    44.081089    44.211455     44.32938    2.2323105    141.53399    21.148757 
  138000    305.43901   -24186.283            0   -24049.876    229.24799    44.081089    44.211455     44.32938    2.4885611    143.12955    19.517666 
  139000    298.00505   -24185.106            0   -24052.018   -627.10833    44.081089    44.211455     44.32938    2.7944858    144.70106    17.884401 
  140000    295.25276   -24187.401            0   -24055.543    118.93758    44.081089    44.211455     44.32938    2.3922429    146.27369    16.252632 
  141000    294.96002   -24186.606            0   -24054.879   -179.18918    44.081089    44.211455     44.32938    2.8441532    147.90252    14.627721 
  142000    302.68537   -24184.869            0   -24049.692   -240.75312    44.081089    44.211455     44.32938     2.469511    149.50348    13.000303 
  143000    299.24114   -24188.455            0   -24054.816    653.62727    44.081089    44.211455     44.32938    2.7450742    151.03091    11.367918 
  144000    305.61536   -24188.464            0   -24051.978   -722.79212    44.081089    44.211455     44.32938    2.3965284    152.59692    9.7402291 
  145000    299.19258   -24184.445            0   -24050.828   -165.52594    44.081089    44.211455     44.32938    2.5882384    154.24569    8.1181945 
  146000    291.27603   -24184.227            0   -24054.145    2.7021318    44.081089    44.211455     44.32938    3.2201413    156.05104    6.5021267 
  147000    301.50765   -24187.752            0     -24053.1    41.185439    44.081089    44.211455     44.32938    2.4672505    157.89491    4.8833476 
  148000    292.89549   -24190.008            0   -24059.203   -36.408257    44.081089    44.211455     44.32938    3.1288238    159.81175    3.2614643 
  149000    301.32348   -24185.279            0    -24050.71   -757.35213    44.081089    44.211455     44.32938    3.0251958    161.49607    1.6312734 
  150000     298.1684   -24188.453            0   -24055.293    157.43892    44.081089    44.211455     44.32938    2.2227843    163.11546            0 
Loop time of 163.116 on 80 procs for 100000 steps with 3456 atoms

Performance: 52.969 ns/day, 0.453 hours/ns, 613.062 timesteps/s
99.0% CPU use with 80 MPI tasks x 1 OpenMP threads

MPI task timing breakdown:
Section |  min time  |  avg time  |  max time  |%varavg| %total
---------------------------------------------------------------
Pair    | 21.888     | 26.275     | 29.777     |  31.8 | 16.11
Kspace  | 72.724     | 77.103     | 82.238     |  22.7 | 47.27
Neigh   | 0.55991    | 0.69575    | 0.7748     |   4.8 |  0.43
Comm    | 55.839     | 57.351     | 59.666     |  13.7 | 35.16
Output  | 0.0051003  | 0.005139   | 0.0062528  |   0.2 |  0.00
Modify  | 0.99069    | 1.101      | 1.1869     |   4.5 |  0.67
Other   |            | 0.5851     |            |       |  0.36

Nlocal:    43.2 ave 56 max 34 min
Histogram: 3 2 13 11 29 14 4 3 0 1
Nghost:    2215.04 ave 2252 max 2187 min
Histogram: 6 6 10 11 14 14 14 3 1 1
Neighs:    9904.89 ave 13105 max 7912 min
Histogram: 3 4 17 21 18 9 7 0 0 1

Total # of neighbors = 792391
Ave neighs/atom = 229.28
Neighbor list builds = 1862
Dangerous builds = 0

# Final Commands
variable final_energy equal etotal
print "final_energy: ${final_energy}"
final_energy: -24055.292825959
print "END_OF_COMP"
END_OF_COMP
Total wall time: 0:04:19
