LAMMPS (7 Aug 2019)
  using 1 OpenMP thread(s) per MPI task
# Input written to comply with LAMMPS 2017-08-11 00:00:00

# Atomic Configuration
units           metal
boundary        p p p
box tilt large
atom_style      charge
read_data       super.lmp
  triclinic box = (0 0 0) to (30.8409 30.9399 30.8613) with tilt (-0.0317434 -0.0977723 -0.0884718)
  4 by 5 by 4 MPI processor grid
  reading atoms ...
  1458 atoms
  read_data CPU = 0.015888 secs
group           lithium type 1
459 atoms in group lithium
group           scandium type 2
135 atoms in group scandium
group           chloride type 3
864 atoms in group chloride
variable        T1 equal 300

# Potential Setup
pair_style  buck/coul/long 12.0
pair_coeff * * 0.0 1.0 0.0
pair_coeff 1 1     360.530000  0.161000   0.000000 # Li Li
pair_coeff 1 3     421.040000  0.344000   0.000000 # Li Cl
pair_coeff 3 3    1227.200000  0.321000  14.530000 # Cl Cl
pair_coeff 2 3    8602.740000  0.261500   0.000000 # Sc Cl

kspace_style pppm 1e-05

# General Setup
timestep        0.001

# Thermodynamic Information Output
thermo_style custom step temp epair emol etotal press lx ly lz fmax cpu cpuremain
thermo          1000

# Intial Atom Velocity
velocity all create ${T1} 80800 dist gaussian rot yes
velocity all create 300 80800 dist gaussian rot yes

# Stage 0: npt_equilibriation
restart         0
fix             int all npt aniso 1.0 1.0 0.1 temp ${T1} ${T1} 0.5
fix             int all npt aniso 1.0 1.0 0.1 temp 300 ${T1} 0.5
fix             int all npt aniso 1.0 1.0 0.1 temp 300 300 0.5
run             50000
PPPM initialization ...
  using 12-bit tables for long-range coulomb (../kspace.cpp:323)
  G vector (1/distance) = 0.271552
  grid = 30 30 30
  stencil order = 5
  estimated absolute RMS force accuracy = 0.000111037
  estimated relative force accuracy = 7.71111e-06
  using double precision MKL FFT
  3d grid and FFT values/proc = 2548 384
Neighbor list info ...
  update every 1 steps, delay 10 steps, check yes
  max neighbors/atom: 2000, page size: 100000
  master list distance cutoff = 14
  ghost atom cutoff = 14
  binsize = 7, bins = 5 5 5
  1 neighbor lists, perpetual/occasional/extra = 1 0 0
  (1) pair buck/coul/long, perpetual
      attributes: half, newton on
      pair build: half/bin/newton/tri
      stencil: half/bin/3d/newton/tri
      bin: standard
Per MPI rank memory allocation (min/avg/max) = 3.45 | 3.524 | 3.713 Mbytes
Step Temp E_pair E_mol TotEng Press Lx Ly Lz Fmax CPU CPULeft 
       0          300   -9826.6628            0   -9770.1632    1264.5348    30.840886    30.939923    30.861307    2.6388356            0            0 
    1000    516.44584   -10074.891            0   -9977.6278    180.22144    33.525964    34.505263     33.80837    4.3333445     1.354604    66.375596 
    2000    381.89378   -10116.495            0   -10044.573    327.16976    33.281637    34.143525    33.798466    2.8396243     2.727633    65.463215 
    3000    306.55062   -10137.356            0   -10079.622    1161.0522    33.141417    33.932988    33.647418    1.9753121    4.1154928    64.476054 
    4000    277.75821   -10142.308            0   -10089.997    81.993932    33.272853    33.953957    33.455905    2.0924639     5.529043    63.583994 
    5000    308.23353   -10139.151            0   -10081.101   -238.21499    33.210899    33.954263    33.539136    2.2039948    6.9637089     62.67338 
    6000     309.8391   -10141.034            0   -10082.682   -768.79646    33.069706    34.093478    33.558249    2.7480885     8.278487    60.708904 
    7000    289.78356   -10146.371            0   -10091.796   -782.97013    33.387798    33.801098    33.233931    2.1595791     9.697217    59.568624 
    8000    297.26651   -10143.897            0   -10087.912   -867.76966    33.337971    34.086361    33.265826    2.4906931    11.095083    58.249191 
    9000    299.74465    -10141.43            0   -10084.979   -478.67489    33.104858    34.386751    33.410101    2.4525766    12.439752    56.669985 
   10000    299.28734    -10148.27            0   -10091.905   -147.47113    33.111623    34.263997    33.181044    2.2113958    13.879593    55.518375 
   11000    293.95904   -10147.548            0   -10092.186    166.55482    33.041875    34.223014    33.169535    2.1940149    15.280563    54.176544 
   12000    321.14598     -10147.6            0   -10087.118    409.76306    32.836684    34.252214    33.302599    2.6172029    16.616169    52.617871 
   13000    296.48964   -10146.464            0   -10090.625    628.63021    32.993502     34.21793    33.325706    2.2525973    17.981459    51.178001 
   14000    293.70385   -10149.032            0   -10093.718    1340.4502    33.093005    33.951762    33.200815    2.5101313    19.302272    49.634416 
   15000    297.98471   -10145.894            0   -10089.774    329.69688    33.125281    34.149598    33.263882    2.5777858     20.73556    48.382975 
   16000    298.66767   -10145.547            0   -10089.299    161.34714    32.946324     34.04064    33.273221    2.2345528     22.18395    47.140896 
   17000    298.08974   -10150.194            0   -10094.054   -285.92307    33.073501     33.92074    33.377366    2.6856504    23.685157    45.977071 
   18000    304.21431   -10150.051            0   -10092.758   -1427.2982    33.043669    34.267895    33.318205    2.5623265    25.172524    44.751155 
   19000    308.65654   -10147.562            0   -10089.432   -696.85469     33.11876    33.870716    33.448497    1.9325833    26.557809    43.331163 
   20000    303.75294   -10149.368            0   -10092.162   -1220.4652    33.025637     34.04541    33.415525    3.0452779    28.049281    42.073923 
   21000    293.97273   -10149.819            0   -10094.454   -1253.7606    33.219159    33.924744    33.345965    2.3344599     29.55112    40.808691 
   22000    296.72053   -10147.321            0   -10091.439   -555.61592    33.130487    34.003744    33.212246    3.0215944    31.057309    39.527485 
   23000    306.37304   -10149.805            0   -10092.105   -331.61656    33.042068    33.964781    33.317239    2.6941416    32.624404    38.298216 
   24000    297.37418   -10151.777            0   -10095.772    202.72753     32.89186    34.062764    33.394426     2.491266    33.986157    36.818338 
   25000    292.98702   -10147.856            0   -10092.677    488.17369    32.855774     34.18564    33.428829    2.5498704    35.363781    35.363782 
   26000    309.69515   -10149.409            0   -10091.084    641.29304    33.036691     33.80082    33.344892    2.7597904    36.811713    33.980044 
   27000    295.68904    -10152.03            0   -10096.343    787.13692    33.051026    33.838892    33.207805    2.3291527    38.157479     32.50452 
   28000    293.99645    -10150.23            0   -10094.861    856.12813    33.082228    33.963752    33.225975    2.5223029    39.485962    31.024685 
   29000    300.86827   -10148.399            0   -10091.736    514.55309    33.170989    33.635961    33.374067    2.5835367    40.841297    29.574733 
   30000    299.19888   -10151.765            0   -10095.416    280.22745    33.033661    34.003975    33.318065    2.0980145    42.221192    28.147462 
   31000    291.25701   -10151.501            0   -10096.648   -91.686478    32.986882    33.991811    33.354355    2.2609873     43.59491    26.719461 
   32000    305.13053   -10150.266            0     -10092.8   -666.45846    33.119701    33.981756    33.366115     1.893682    44.949651    25.284179 
   33000    292.77048   -10150.864            0   -10095.726   -448.24301    32.969589    34.035167    33.498949    2.8053161    46.339567    23.871899 
   34000    293.83163   -10153.908            0    -10098.57   -687.85904    33.193969    33.956003    33.444712    2.6859466     47.68068    22.437968 
   35000    298.92468   -10152.869            0   -10096.572   -612.63659    33.132633     34.04847     33.23245    2.2594914    49.027524    21.011796 
   36000    308.58948   -10155.676            0   -10097.559   -293.11551    33.029793    33.900594    33.294934    2.1333656    50.311984    19.565772 
   37000    290.87874   -10155.379            0   -10100.598     56.34144    32.979148     33.94939     33.28989    2.9336983    51.670865    18.154629 
   38000    301.39117   -10155.466            0   -10098.705    340.20908    32.944507    33.991669    33.207892    2.8478908    52.947251    16.720185 
   39000     308.4184   -10157.093            0   -10099.008    258.93941     33.04869    34.184582    33.078237     2.254163     54.34794    15.328906 
   40000    300.63539   -10158.572            0   -10101.952    585.64056    32.848037     34.17097    33.342014    1.9362239    55.731036    13.932759 
   41000    305.86137   -10157.473            0    -10099.87    697.08758    32.890262    34.227517    33.065888    2.1503914     57.05014    12.523202 
   42000    317.36319   -10154.878            0   -10095.108    388.34402    32.887121    34.253492    33.175642    2.3234412     58.37547    11.119137 
   43000    308.73177   -10157.041            0   -10098.897    835.81656    32.786626    34.050637    33.437994    2.0177538    59.770596    9.7300972 
   44000    302.67079   -10158.191            0   -10101.189    470.20143    32.799429    34.060247    33.269188    2.4553951    61.223327    8.3486356 
   45000    289.88954   -10155.489            0   -10100.894    66.984211    32.881034    34.050071    33.292446    2.3135878    62.735777    6.9706421 
   46000    307.86174   -10155.956            0   -10097.976   -384.25911    32.918116    34.112901    33.324647    2.3884068    64.242639    5.5863165 
   47000    290.26723   -10156.844            0   -10102.177   -387.98306    32.707063     34.37944    33.289666    2.2986273    65.725563    4.1952488 
   48000    297.11572   -10156.794            0   -10100.838   -879.02283    32.972353    34.112355    33.231551    2.1794948    67.094585    2.7956077 
   49000     300.9953   -10156.102            0   -10099.415   -438.20024    32.927474    34.274436    33.199418    2.9158309    68.547355    1.3989256 
   50000    286.05315   -10157.862            0   -10103.989   -222.52485    32.817902     34.22419    33.184438    2.0629839    69.996268            0 
Loop time of 69.9963 on 80 procs for 50000 steps with 1458 atoms

Performance: 61.718 ns/day, 0.389 hours/ns, 714.324 timesteps/s
99.1% CPU use with 80 MPI tasks x 1 OpenMP threads

MPI task timing breakdown:
Section |  min time  |  avg time  |  max time  |%varavg| %total
---------------------------------------------------------------
Pair    | 4.7773     | 5.9638     | 7.2029     |  17.7 |  8.52
Kspace  | 36.452     | 37.605     | 38.701     |   7.4 | 53.72
Neigh   | 0.14434    | 0.17515    | 0.2091     |   3.1 |  0.25
Comm    | 20.953     | 21.236     | 21.511     |   3.0 | 30.34
Output  | 0.0026379  | 0.0026746  | 0.0037308  |   0.2 |  0.00
Modify  | 3.568      | 4.1545     | 4.4239     |  15.2 |  5.94
Other   |            | 0.8587     |            |       |  1.23

Nlocal:    18.225 ave 25 max 11 min
Histogram: 1 3 10 9 6 24 11 12 1 3
Nghost:    1802.79 ave 1837 max 1768 min
Histogram: 4 7 5 10 10 14 14 9 4 3
Neighs:    4081.01 ave 5534 max 2470 min
Histogram: 1 4 8 10 6 22 13 11 2 3

Total # of neighbors = 326481
Ave neighs/atom = 223.924
Neighbor list builds = 1006
Dangerous builds = 7

# Stage 1: nvt_equilibriation
unfix int
restart         0
fix             int all nvt temp ${T1} ${T1} 0.5
fix             int all nvt temp 300 ${T1} 0.5
fix             int all nvt temp 300 300 0.5
run             50000
PPPM initialization ...
  using 12-bit tables for long-range coulomb (../kspace.cpp:323)
  G vector (1/distance) = 0.267333
  grid = 30 32 30
  stencil order = 5
  estimated absolute RMS force accuracy = 0.000131333
  estimated relative force accuracy = 9.12058e-06
  using double precision MKL FFT
  3d grid and FFT values/proc = 2744 448
Per MPI rank memory allocation (min/avg/max) = 3.689 | 3.699 | 3.712 Mbytes
Step Temp E_pair E_mol TotEng Press Lx Ly Lz Fmax CPU CPULeft 
   50000    286.05315   -10157.856            0   -10103.983   -220.54778    32.817902     34.22419    33.184438    2.0629623            0            0 
   51000    300.67354   -10156.697            0   -10100.071    785.38274    32.817902     34.22419    33.184438    2.8001082     1.402081    68.702016 
   52000    305.34232   -10158.141            0   -10100.635    938.05933    32.817902     34.22419    33.184438    2.4981762     2.836307    68.071369 
   53000    289.80806   -10158.553            0   -10103.973    158.39325    32.817902     34.22419    33.184438    2.1510558    4.1373301    64.818171 
   54000    293.81065   -10159.521            0   -10104.187    695.08319    32.817902     34.22419    33.184438     2.450069     5.401521    62.117502 
   55000    296.49811   -10156.036            0   -10100.196    595.55363    32.817902     34.22419    33.184438      2.39356    6.6974759    60.277283 
   56000    304.73403   -10159.079            0   -10101.688    -434.8952    32.817902     34.22419    33.184438    2.3091871    8.0216169    58.825198 
   57000    285.85117    -10158.07            0   -10104.235    1013.4449    32.817902     34.22419    33.184438    2.2914304      9.29094    57.072923 
   58000    315.50379   -10159.078            0   -10099.658    79.535907    32.817902     34.22419    33.184438    2.4211912    10.525367    55.258182 
   59000    299.71366   -10159.208            0   -10102.762    202.20983    32.817902     34.22419    33.184438     2.333894    11.776552    53.648741 
   60000    297.41777   -10159.452            0   -10103.439    883.32258    32.817902     34.22419    33.184438    2.1722128    13.014053    52.056216 
   61000    313.75427   -10157.371            0   -10098.281    603.40872    32.817902     34.22419    33.184438    2.5616242    14.286632    50.652608 
   62000    296.90186   -10158.391            0   -10102.475   -454.55701    32.817902     34.22419    33.184438    2.5610923    15.603101    49.409823 
   63000    298.95626   -10160.939            0   -10104.636    448.22163    32.817902     34.22419    33.184438    2.4930314    16.941489    48.218087 
   64000    312.59594   -10159.852            0    -10100.98    143.08671    32.817902     34.22419    33.184438    2.4814111    18.222253    46.857225 
   65000     302.9389   -10160.019            0   -10102.966   -426.94505    32.817902     34.22419    33.184438    2.8091653    19.453408    45.391288 
   66000     299.1441   -10160.531            0   -10104.192    334.77401    32.817902     34.22419    33.184438    2.0358841    20.698552    43.984425 
   67000    303.44313   -10159.371            0   -10102.223    162.42242    32.817902     34.22419    33.184438    2.0685252    21.973276    42.654008 
   68000    311.85047   -10160.019            0   -10101.288   -676.12855    32.817902     34.22419    33.184438    2.6618254    23.233589     41.30416 
   69000    294.53264   -10160.798            0   -10105.328    54.114091    32.817902     34.22419    33.184438    2.5416127    24.494646     39.96495 
   70000    306.21371   -10160.544            0   -10102.874    -323.9012    32.817902     34.22419    33.184438    2.2743241    25.755501    38.633253 
   71000      303.632   -10158.989            0   -10101.806   -123.57814    32.817902     34.22419    33.184438    2.2183575    27.046879    37.350453 
   72000    294.67472   -10159.701            0   -10104.204   -225.53483    32.817902     34.22419    33.184438    1.9471362    28.302728    36.021655 
   73000     298.9488   -10161.674            0   -10105.372   -877.08363    32.817902     34.22419    33.184438    2.2093655    29.618284    34.769291 
   74000     293.1175    -10161.64            0   -10106.436   -352.51505    32.817902     34.22419    33.184438    2.0956174    30.982953    33.564867 
   75000    307.54938   -10160.698            0   -10102.777   -294.41469    32.817902     34.22419    33.184438    2.6789946    32.304833    32.304834 
   76000    294.39538   -10161.249            0   -10105.804    1289.1841    32.817902     34.22419    33.184438    2.3225794    33.609597    31.024244 
   77000    291.36745   -10165.456            0   -10110.583    386.10961    32.817902     34.22419    33.184438     2.884352     34.97415    29.792795 
   78000    293.82895   -10162.796            0   -10107.459   -411.95486    32.817902     34.22419    33.184438    2.5181117    36.206999    28.448357 
   79000    297.95102   -10159.788            0   -10103.675   -233.45893    32.817902     34.22419    33.184438    2.7668549    37.493867    27.150731 
   80000    305.06191   -10161.706            0   -10104.253   -638.74838    32.817902     34.22419    33.184438    2.5164776    38.833126    25.888751 
   81000    299.29445    -10163.47            0   -10107.103    914.51537    32.817902     34.22419    33.184438    2.1501259    40.151954    24.609263 
   82000    305.79192   -10162.399            0   -10104.808    565.79271    32.817902     34.22419    33.184438       2.5377     41.50231     23.34505 
   83000    298.52791   -10161.297            0   -10105.075    626.63737    32.817902     34.22419    33.184438    3.3022551    42.901905    22.100982 
   84000    292.40289    -10162.73            0   -10107.661    926.28005    32.817902     34.22419    33.184438    2.4109425    44.104426    20.755025 
   85000    291.68413    -10163.05            0   -10108.117   -657.11808    32.817902     34.22419    33.184438    2.3795236    45.326096     19.42547 
   86000     298.3924   -10161.616            0   -10105.419    -578.7408    32.817902     34.22419    33.184438    2.5801667    46.579575     18.11428 
   87000    306.73872   -10163.112            0   -10105.344    -75.12609    32.817902     34.22419    33.184438    2.4098009    47.802541    16.795488 
   88000    292.47581   -10163.909            0   -10108.826   -887.32804    32.817902     34.22419    33.184438    2.0264805    49.069966    15.495779 
   89000     301.7664   -10161.401            0   -10104.569   -647.83847    32.817902     34.22419    33.184438    2.1428074    50.362881    14.204915 
   90000    296.50191   -10162.165            0   -10106.324    154.14361    32.817902     34.22419    33.184438    2.4471559    51.658157     12.91454 
   91000    307.53335   -10164.987            0   -10107.069    481.88953    32.817902     34.22419    33.184438    2.8377579    52.923938     11.61745 
   92000    320.72884   -10163.562            0   -10103.159    197.77305    32.817902     34.22419    33.184438    1.9906199    54.197385    10.323312 
   93000    297.10581   -10162.938            0   -10106.984    157.98251    32.817902     34.22419    33.184438    2.0022474    55.483851     9.032255 
   94000    301.94364   -10163.271            0   -10106.405   -829.64479    32.817902     34.22419    33.184438    1.9489249    56.740694    7.7373675 
   95000    310.46928   -10161.202            0    -10102.73    136.36191    32.817902     34.22419    33.184438    2.4091213    57.902719    6.4336356 
   96000    308.03664   -10163.757            0   -10105.744    248.25433    32.817902     34.22419    33.184438    2.6289502    59.175496    5.1456954 
   97000    303.93236   -10164.084            0   -10106.844    112.53594    32.817902     34.22419    33.184438    2.2588755    60.420685    3.8566395 
   98000    288.08625   -10164.762            0   -10110.506    -481.3361    32.817902     34.22419    33.184438    2.2657137    61.650161    2.5687567 
   99000    306.49937   -10164.047            0   -10106.323   -243.89027    32.817902     34.22419    33.184438    2.3343873    62.891277    1.2834955 
  100000    304.88104   -10163.928            0    -10106.51   -429.98001    32.817902     34.22419    33.184438    2.2166954    64.154886            0 
Loop time of 64.1549 on 80 procs for 50000 steps with 1458 atoms

Performance: 67.337 ns/day, 0.356 hours/ns, 779.364 timesteps/s
99.3% CPU use with 80 MPI tasks x 1 OpenMP threads

MPI task timing breakdown:
Section |  min time  |  avg time  |  max time  |%varavg| %total
---------------------------------------------------------------
Pair    | 4.7592     | 6.2004     | 7.8468     |  27.2 |  9.66
Kspace  | 28.675     | 30.997     | 32.731     |  14.7 | 48.32
Neigh   | 0.11474    | 0.14186    | 0.17002    |   3.2 |  0.22
Comm    | 25.392     | 26.097     | 27.308     |   8.8 | 40.68
Output  | 0.002497   | 0.0025149  | 0.0031757  |   0.1 |  0.00
Modify  | 0.4146     | 0.4498     | 0.49251    |   2.4 |  0.70
Other   |            | 0.2663     |            |       |  0.42

Nlocal:    18.225 ave 23 max 14 min
Histogram: 4 6 6 16 12 12 10 9 4 1
Nghost:    1796.96 ave 1833 max 1769 min
Histogram: 5 7 14 10 11 13 9 5 5 1
Neighs:    4082.78 ave 5195 max 3093 min
Histogram: 4 6 6 16 12 12 9 10 3 2

Total # of neighbors = 326622
Ave neighs/atom = 224.021
Neighbor list builds = 810
Dangerous builds = 0

# Stage 2: main_nvt_simulation
unfix int
compute         lithiummsd lithium msd com yes
compute         scandiummsd scandium msd com yes
compute         chloridemsd chloride msd com yes
fix             lithiummsdt lithium ave/time 1 1 1000 c_lithiummsd[4] file super_cu_msd_li.txt
fix             scandiummymsdt scandium ave/time 1 1 1000 c_scandiummsd[4] file super_cu_msd_sc.txt
fix             chloridemymsdt chloride ave/time 1 1 1000 c_chloridemsd[4] file super_cu_msd_cl.txt
dump            atom_info all custom 1000 super_cu.lammpstrj element x y z q id type vx vy vz
dump_modify     atom_info append yes
dump_modify     atom_info sort id
dump_modify     atom_info element Li Sc Cl
restart         0
fix             int all nvt temp ${T1} ${T1} 0.5
fix             int all nvt temp 300 ${T1} 0.5
fix             int all nvt temp 300 300 0.5
run             2000000
PPPM initialization ...
  using 12-bit tables for long-range coulomb (../kspace.cpp:323)
  G vector (1/distance) = 0.267333
  grid = 30 32 30
  stencil order = 5
  estimated absolute RMS force accuracy = 0.000131333
  estimated relative force accuracy = 9.12058e-06
  using double precision MKL FFT
  3d grid and FFT values/proc = 2744 448
Per MPI rank memory allocation (min/avg/max) = 6.084 | 6.094 | 6.107 Mbytes
Step Temp E_pair E_mol TotEng Press Lx Ly Lz Fmax CPU CPULeft 
  100000    304.88104   -10163.928            0    -10106.51   -429.98001    32.817902     34.22419    33.184438    2.2166954            0            0 
  101000    289.07879   -10163.397            0   -10108.954   -410.33151    32.817902     34.22419    33.184438    2.5678686     1.214397    2427.5814 
  102000    295.43563   -10163.971            0   -10108.331    -237.0972    32.817902     34.22419    33.184438    2.7104922    2.4190989    2416.6809 
  103000     303.7449   -10163.164            0    -10105.96    563.22059    32.817902     34.22419    33.184438    2.4807959     3.649193    2429.1462 
  104000    293.58258   -10163.743            0   -10108.452    861.14277    32.817902     34.22419    33.184438    2.1198938    4.8909049    2440.5615 
  105000     290.0008   -10163.057            0    -10108.44   -125.85555    32.817902     34.22419    33.184438    2.1930965    6.1586828    2457.3149 
  106000    308.10597   -10163.433            0   -10105.407    136.86774    32.817902     34.22419    33.184438    2.2101057    7.4816279    2486.3944 
  107000    296.54469   -10164.291            0   -10108.443    906.10261    32.817902     34.22419    33.184438     1.948592    8.7487628    2490.8981 
  108000    303.53836   -10166.982            0   -10109.816    451.65449    32.817902     34.22419    33.184438    2.0793971    10.108602    2517.0421 
  109000    301.50568   -10162.808            0   -10106.025   -774.07053    32.817902     34.22419    33.184438    2.2428816     11.41389    2525.0063 
  110000    296.64471   -10162.573            0   -10106.706   -268.14991    32.817902     34.22419    33.184438    2.2069401    12.718009     2530.884 
  111000    294.62316   -10165.665            0   -10110.178    519.55902    32.817902     34.22419    33.184438    2.8895319    13.975736    2527.0673 
  112000    306.15911   -10165.294            0   -10107.634   -234.23183    32.817902     34.22419    33.184438    2.3837439    15.337297     2540.879 
  113000    296.20574   -10162.806            0   -10107.021     524.1604    32.817902     34.22419    33.184438    2.7097105    16.668102    2547.6554 
  114000    290.09885   -10165.664            0   -10111.029    761.66966    32.817902     34.22419    33.184438    1.8780805    17.978957    2550.4436 
  115000    294.68769   -10163.071            0   -10107.572    798.61893    32.817902     34.22419    33.184438    2.3387061    19.282891    2551.7692 
  116000    305.07818   -10164.445            0   -10106.989   -1588.8173    32.817902     34.22419    33.184438    2.1378476    20.581932    2552.1597 
  117000    296.77262   -10166.886            0   -10110.994   -213.18806    32.817902     34.22419    33.184438    2.3135141    21.782518    2540.8668 
  118000    305.62591   -10166.367            0   -10108.808   -560.79504    32.817902     34.22419    33.184438    2.3204614    23.034177    2536.3189 
  119000    315.23895   -10166.542            0   -10107.172   -34.609088    32.817902     34.22419    33.184438     2.438502    24.225764    2525.8548 
  120000    303.96876   -10163.584            0   -10106.337   -218.54016    32.817902     34.22419    33.184438     1.988756    25.439119    2518.4729 
  121000    289.30108    -10164.74            0   -10110.256    345.34347    32.817902     34.22419    33.184438    2.1145386    26.690988     2515.308 
  122000    303.38664   -10164.206            0   -10107.068    217.94173    32.817902     34.22419    33.184438    2.4087229    27.901585    2508.6062 
  123000    300.83249   -10163.209            0   -10106.553   -174.32022    32.817902     34.22419    33.184438     2.332799    29.100031    2501.3375 
  124000    296.63972   -10164.855            0   -10108.989   -970.84885    32.817902     34.22419    33.184438    2.3728964    30.416736    2504.3113 
  125000    302.27118   -10166.303            0   -10109.376    364.98581    32.817902     34.22419    33.184438    2.6131462    31.740397    2507.4914 
  126000    310.68733   -10165.989            0   -10107.477   -403.38034    32.817902     34.22419    33.184438    2.2310316     32.94098    2500.9806 
  127000    304.16801   -10166.573            0   -10109.288   -198.76141    32.817902     34.22419    33.184438    2.0648056     34.17167    2497.0631 
  128000    294.08257   -10166.049            0   -10110.663   -74.532445    32.817902     34.22419    33.184438    2.0653494    35.404543    2493.4914 
  129000    303.59392   -10163.748            0   -10106.572   -635.64058    32.817902     34.22419    33.184438    2.2818366    36.622779    2489.0862 
  130000    297.50713   -10165.544            0   -10109.514   -1235.2568    32.817902     34.22419    33.184438    2.2282663    37.834701    2484.4788 
  131000    311.02154   -10167.498            0   -10108.922    -1025.552    32.817902     34.22419    33.184438    2.8374257    39.047859    2480.1689 
  132000    303.29568   -10163.747            0   -10106.627   -654.04682    32.817902     34.22419    33.184438    2.2994285    40.278236    2477.1116 
  133000    299.20097    -10166.34            0    -10109.99   -475.14174    32.817902     34.22419    33.184438    2.0163899    41.508684    2474.1692 
  134000    303.72338   -10166.575            0   -10109.375   -1466.9223    32.817902     34.22419    33.184438    2.1345182    42.714702    2469.9149 
  135000    303.21988   -10165.543            0   -10108.437   -541.84877    32.817902     34.22419    33.184438     2.382508     43.98823    2469.6249 
  136000     303.3792   -10166.694            0   -10109.558   -809.96301    32.817902     34.22419    33.184438    2.0928758    45.204276    2466.1444 
  137000    292.29971   -10166.829            0   -10111.779   -724.93115    32.817902     34.22419    33.184438    2.3192854    46.459958    2464.8891 
  138000    303.55635   -10164.503            0   -10107.334   -1077.3655    32.817902     34.22419    33.184438    2.2644342    47.737207    2464.7474 
  139000    297.85703   -10165.748            0   -10109.652    -1092.922    32.817902     34.22419    33.184438    2.3493739    49.052822    2466.4765 
  140000    289.34414   -10165.915            0   -10111.422   -1100.1362    32.817902     34.22419    33.184438    2.2521238    50.334967    2466.4134 
  141000    302.93737   -10166.559            0   -10109.506   -53.370754    32.817902     34.22419    33.184438    2.4307618    51.662335    2468.4516 
  142000    297.19075   -10164.713            0   -10108.742   -225.19038    32.817902     34.22419    33.184438     2.910502    52.947075    2468.3423 
  143000    296.55696   -10166.367            0   -10110.516   -606.49722    32.817902     34.22419    33.184438    2.5186652    54.259518     2469.439 
  144000    296.90754   -10166.414            0   -10110.497   -52.727993    32.817902     34.22419    33.184438    2.6797674    55.570536     2470.363 
  145000    302.91349   -10164.357            0   -10107.309   -195.45643    32.817902     34.22419    33.184438    2.3789945    56.881143    2471.1697 
  146000     300.1363   -10167.119            0   -10110.594    572.98743    32.817902     34.22419    33.184438    2.1304669    58.287879    2475.9677 
  147000    299.29529   -10166.597            0    -10110.23     61.11907    32.817902     34.22419    33.184438    2.1306954    59.528383    2473.5943 
  148000    304.46419   -10163.878            0   -10106.537    552.24991    32.817902     34.22419    33.184438    2.8839761    60.739182    2470.0601 
  149000    293.89588   -10166.168            0   -10110.818    1096.4653    32.817902     34.22419    33.184438    2.2643305    62.023643    2469.5537 
  150000    300.42082   -10166.725            0   -10110.146   -1240.0998    32.817902     34.22419    33.184438    2.4871359    63.246065    2466.5966 
  151000    304.30532    -10164.82            0    -10107.51    153.22626    32.817902     34.22419    33.184438    1.8728293    64.455637    2463.2164 
  152000     287.9874   -10166.688            0   -10112.451   -227.89071    32.817902     34.22419    33.184438    2.5982705    65.709171    2461.5666 
  153000    303.12445   -10167.053            0   -10109.965    101.68728    32.817902     34.22419    33.184438    2.1224358    66.920084    2458.3661 
  154000    305.04541   -10166.356            0   -10108.906    699.31909    32.817902     34.22419    33.184438    2.1815421    68.163733     2456.419 
  155000    293.39512   -10168.506            0    -10113.25    179.29489    32.817902     34.22419    33.184438    2.3641321    69.365913     2453.031 
  156000    292.05492   -10164.828            0   -10109.824   -1168.6368    32.817902     34.22419    33.184438    2.1928125    70.596427    2450.7046 
  157000    301.67706   -10166.454            0   -10109.638    204.46774    32.817902     34.22419    33.184438     2.780707    71.776238    2446.6883 
  158000    294.35301    -10169.32            0   -10113.884    463.86716    32.817902     34.22419    33.184438    2.6072757    72.984451    2443.7208 
  159000    302.82643   -10167.684            0   -10110.652   -238.82891    32.817902     34.22419    33.184438    2.2435103    74.248762    2442.6585 
  160000    296.17229   -10165.746            0   -10109.967     -3.76533    32.817902     34.22419    33.184438    2.3598632    75.513199    2441.5934 
  161000    295.05094   -10170.815            0   -10115.247    73.621438    32.817902     34.22419    33.184438    2.3619582     76.73028    2439.0166 
  162000    303.90522   -10169.161            0   -10111.926   -11.774826    32.817902     34.22419    33.184438    2.9775294    78.004211    2438.2607 
  163000    298.90756   -10166.056            0   -10109.762   -1337.7623    32.817902     34.22419    33.184438    2.1672926    79.202665    2435.1677 
  164000    289.32356   -10167.043            0   -10112.554   -688.16033    32.817902     34.22419    33.184438    1.9745478     80.42287    2432.7918 
  165000    293.66631   -10168.128            0   -10112.822   -516.03355    32.817902     34.22419    33.184438    2.5564611    81.626396     2429.955 
  166000    313.91449   -10169.113            0   -10109.993   -316.24019    32.817902     34.22419    33.184438    2.3096543    82.896108    2429.1072 
  167000    292.13764   -10166.457            0   -10111.438    495.72263    32.817902     34.22419    33.184438    2.5161499    84.086501    2425.9583 
  168000    292.24032   -10169.258            0    -10114.22   -607.53087    32.817902     34.22419    33.184438    2.2342527    85.327068    2424.2926 
  169000    301.99946   -10167.094            0   -10110.218   -119.22875    32.817902     34.22419    33.184438    3.0423688     86.57891    2422.9547 
  170000    293.08404   -10164.736            0   -10109.539    844.21046    32.817902     34.22419    33.184438    2.8751009    87.835643    2421.7542 
  171000    291.00552   -10168.181            0   -10113.375   -501.77585    32.817902     34.22419    33.184438    2.0697437    89.184849    2423.0644 
  172000    305.79187   -10167.686            0   -10110.095   -648.40752    32.817902     34.22419    33.184438     2.305208    90.437417    2421.7131 
  173000    302.66597    -10167.58            0   -10110.578   -391.37119    32.817902     34.22419    33.184438    2.3753229    91.752769    2422.0217 
  174000      306.091   -10171.123            0   -10113.477   -374.02747    32.817902     34.22419    33.184438    2.1512923    93.020817    2421.0553 
  175000    306.63733   -10168.924            0   -10111.175   -878.29159    32.817902     34.22419    33.184438    2.2753948    94.300049     2420.368 
  176000    298.12854   -10165.961            0   -10109.813   -539.24618    32.817902     34.22419    33.184438    3.1277242    95.595526    2420.0762 
  177000    298.69999   -10169.661            0   -10113.407   -515.27144    32.817902     34.22419    33.184438    2.5277233    96.937007    2420.9074 
  178000    304.94722   -10169.326            0   -10111.895    -854.5928    32.817902     34.22419    33.184438    2.3415655    98.221806     2420.286 
  179000     306.9649   -10169.085            0   -10111.273   -410.90514    32.817902     34.22419    33.184438    2.1672372    99.490771    2419.2629 
  180000    295.99237   -10168.855            0    -10113.11   -1605.7512    32.817902     34.22419    33.184438    2.2816527    100.68807    2416.5138 
  181000    303.58114   -10167.302            0   -10110.128   -55.825364    32.817902     34.22419    33.184438    2.5877655    101.88577    2413.8123 
  182000    304.81424   -10168.043            0   -10110.636   -930.93631    32.817902     34.22419    33.184438    2.5387762      103.084    2411.1599 
  183000    295.01445   -10168.981            0    -10113.42   -997.73316    32.817902     34.22419    33.184438    2.3222767    104.29013     2408.725 
  184000    301.61641   -10167.143            0   -10110.339    -962.2811    32.817902     34.22419    33.184438    2.2192669     105.5138    2406.7197 
  185000      296.224   -10168.594            0   -10112.805   -947.49871    32.817902     34.22419    33.184438    2.1016952    106.68643    2403.5826 
  186000    296.32829    -10168.55            0   -10112.742    -723.8895    32.817902     34.22419    33.184438    2.5324958    107.91592    2401.7567 
  187000     309.0509   -10168.507            0   -10110.303   -853.81372    32.817902     34.22419    33.184438    1.9881284    109.08651    2398.6494 
  188000    297.84612   -10168.762            0   -10112.668   -1614.7716    32.817902     34.22419    33.184438    2.1902425    110.27585    2395.9934 
  189000    292.12122   -10169.562            0   -10114.546   -538.53771    32.817902     34.22419    33.184438    2.0709939    111.48471    2393.7897 
  190000    294.50039   -10166.878            0   -10111.414    -430.0659    32.817902     34.22419    33.184438    2.5584586    112.68301     2391.384 
  191000    302.92853   -10167.819            0   -10110.767   -1149.0428    32.817902     34.22419    33.184438    2.1850121     113.9142    2389.6946 
  192000    297.54795   -10168.083            0   -10112.046   -565.69601    32.817902     34.22419    33.184438    2.4004862    115.08505    2386.7638 
  193000     297.5334   -10167.881            0   -10111.846   -1563.5678    32.817902     34.22419    33.184438    2.5127622    116.27665    2384.2964 
  194000    298.49751   -10164.857            0    -10108.64   -1656.9445    32.817902     34.22419    33.184438    2.1803952    117.50056    2382.5114 
  195000    292.72811   -10168.111            0   -10112.981   -1352.9499    32.817902     34.22419    33.184438    2.2629562     118.7009    2380.2654 
  196000    294.59448   -10166.587            0   -10111.105   -1831.3096    32.817902     34.22419    33.184438    2.8480557    119.95016    2379.0115 
  197000    304.74801   -10167.642            0   -10110.249   -1723.0833    32.817902     34.22419    33.184438    3.2161651    121.17904    2377.3579 
  198000    292.77845   -10168.957            0   -10113.817   -1574.8914    32.817902     34.22419    33.184438    2.0274853    122.36744    2374.9273 
  199000    299.50915   -10166.601            0   -10110.193   -979.48532    32.817902     34.22419    33.184438    2.2727949    123.57827    2372.9525 
  200000    299.52842   -10166.928            0   -10110.517   -1997.6137    32.817902     34.22419    33.184438    2.2376252    124.78653    2370.9441 
  201000    294.40939   -10168.227            0    -10112.78   -1071.1616    32.817902     34.22419    33.184438    2.0259589    125.97562    2368.5911 
  202000    293.50531   -10168.521            0   -10113.245   -991.03765    32.817902     34.22419    33.184438    2.1028255    127.23223    2367.5174 
  203000    298.99587   -10166.488            0   -10110.178   -1516.7748    32.817902     34.22419    33.184438    2.3426763    128.51206    2366.8679 
  204000    297.56843   -10169.444            0   -10113.402   -1809.6507    32.817902     34.22419    33.184438    2.0280557    129.79864    2366.3291 
  205000    299.36873   -10169.827            0   -10113.446   -62.601058    32.817902     34.22419    33.184438    2.5060988    131.10239     2366.086 
  206000    304.11178   -10168.116            0   -10110.842    296.30103    32.817902     34.22419    33.184438    2.8533389    132.40152    2365.7403 
  207000    308.28395   -10166.206            0   -10108.146   -1323.9495    32.817902     34.22419    33.184438    2.3854468    133.70417    2365.4393 
  208000    300.36761   -10169.366            0   -10112.797   -170.59302    32.817902     34.22419    33.184438    2.3274289    134.97841    2364.6218 
  209000    300.47579   -10170.687            0   -10114.097   -834.38303    32.817902     34.22419    33.184438    2.2077386    136.29334     2364.502 
  210000    300.12263   -10169.482            0   -10112.959   -1054.9571    32.817902     34.22419    33.184438    2.7725512    137.63317    2364.7881 
  211000    303.60035   -10167.751            0   -10110.573   -896.12736    32.817902     34.22419    33.184438    2.7555235    138.91389    2364.0391 
  212000    298.06385     -10170.7            0   -10114.566   -824.93839    32.817902     34.22419    33.184438    2.0569589    140.11462    2361.9322 
  213000    300.84139     -10168.7            0   -10112.042    130.12516    32.817902     34.22419    33.184438    2.7259586    141.33236    2360.1253 
  214000    313.00566   -10168.552            0   -10109.603   -451.95278    32.817902     34.22419    33.184438    2.1615109    142.55952    2358.4847 
  215000    295.56074   -10168.288            0   -10112.625   -1344.5051    32.817902     34.22419    33.184438    2.6290497    143.79895    2357.0524 
  216000     290.2216   -10168.552            0   -10113.894   -641.49451    32.817902     34.22419    33.184438    2.4120232    145.00248    2355.0403 
  217000    306.64226   -10167.653            0   -10109.903   -779.73443    32.817902     34.22419    33.184438     2.618573    146.21114    2353.1247 
  218000    298.87114   -10168.114            0   -10111.827   -1317.1294    32.817902     34.22419    33.184438    2.7589404    147.48221    2352.2163 
  219000    298.83536     -10170.4            0   -10114.119   -1875.2758    32.817902     34.22419    33.184438    2.7351236    148.69136    2350.3232 
  220000    304.47272   -10169.144            0   -10111.803   -164.83297    32.817902     34.22419    33.184438    2.7716167    149.87357    2348.0193 
  221000    304.06502   -10169.603            0   -10112.338   -1304.3189    32.817902     34.22419    33.184438     2.410144    151.10237    2346.4575 
  222000    304.28105    -10172.39            0   -10115.084   -985.70204    32.817902     34.22419    33.184438    2.3832871    152.28996    2344.2668 
  223000    305.14561   -10170.458            0   -10112.989   -282.03868    32.817902     34.22419    33.184438    2.3257901    153.51712    2342.6963 
  224000    305.91837   -10168.892            0   -10111.278   -1837.3313    32.817902     34.22419    33.184438    2.0370673    154.70236     2340.497 
  225000    301.67702   -10171.243            0   -10114.427   -337.66654    32.817902     34.22419    33.184438    2.1455104    155.90124    2338.5187 
  226000     301.9628   -10171.788            0   -10114.919   -420.03132    32.817902     34.22419    33.184438    2.5008595    157.11024    2336.7032 
  227000    294.70948   -10170.242            0   -10114.739   -694.85682    32.817902     34.22419    33.184438    2.5107926     158.3402    2335.2063 
  228000    307.01566   -10170.095            0   -10112.275   -1114.2095    32.817902     34.22419    33.184438     2.082112    159.57763    2333.8229 
  229000    294.30681   -10171.207            0   -10115.779    -529.9666    32.817902     34.22419    33.184438    2.1418468    160.75407    2331.5571 
  230000    291.32918   -10170.039            0   -10115.172   -614.38033    32.817902     34.22419    33.184438    2.5494449    161.98361     2330.072 
  231000    307.40523   -10170.992            0   -10113.098   -893.81507    32.817902     34.22419    33.184438    2.5430995    163.22437    2328.7507 
  232000    297.76722   -10170.697            0   -10114.618   -1529.2231    32.817902     34.22419    33.184438    2.3766893    164.47603     2327.585 
  233000    286.33953   -10171.313            0   -10117.386   -755.76136    32.817902     34.22419    33.184438    2.5065732    165.76329    2326.9178 
  234000    301.78094   -10171.857            0   -10115.021   -485.69967    32.817902     34.22419    33.184438    2.1047895    167.09523    2326.8635 
  235000    301.20189   -10169.692            0   -10112.966    -395.7296    32.817902     34.22419    33.184438    2.2652709    168.39138    2326.2957 
  236000     295.3182   -10172.903            0   -10117.286    -962.9301    32.817902     34.22419    33.184438    2.4866564    169.66478    2325.4055 
  237000    294.21145   -10170.746            0   -10115.337     -651.067    32.817902     34.22419    33.184438     2.191053    170.97339    2324.9885 
  238000    295.93399   -10169.636            0   -10113.902   -318.80692    32.817902     34.22419    33.184438    2.1926146    172.20212    2323.4808 
  239000    296.89696   -10172.995            0    -10117.08   -191.82989    32.817902     34.22419    33.184438    2.0963699    173.51706    2323.1313 
  240000     294.5452   -10171.471            0   -10115.999   -279.53759    32.817902     34.22419    33.184438    2.2404705    174.75579    2321.7556 
  241000    302.28151    -10170.82            0    -10113.89   -508.37495    32.817902     34.22419    33.184438    2.1439032    176.04742    2321.0791 
  242000    307.33473   -10173.551            0    -10115.67    487.36816    32.817902     34.22419    33.184438    2.1527368     177.3377    2320.3764 
  243000    288.54321   -10171.865            0   -10117.523    620.02033    32.817902     34.22419    33.184438    2.9729287    178.64382    2319.8712 
  244000    304.32052    -10171.68            0   -10114.367   -392.26731    32.817902     34.22419    33.184438    2.3867055     179.8712    2318.3399 
  245000    303.76012    -10171.39            0   -10114.182    -1405.915    32.817902     34.22419    33.184438    2.3469435    181.11738    2317.0533 
  246000    301.97508   -10170.277            0   -10113.405   -511.01391    32.817902     34.22419    33.184438    2.2564022     182.3032    2315.0009 
  247000    300.67414   -10171.788            0   -10115.162   -1262.6935    32.817902     34.22419    33.184438    2.6123323    183.52236    2313.3805 
  248000    300.14956   -10173.888            0    -10117.36     -284.611    32.817902     34.22419    33.184438    2.3040845    184.71635    2311.4506 
  249000    307.54423   -10170.404            0   -10112.484   -645.43531    32.817902     34.22419    33.184438    2.3298677    185.87275    2309.0635 
  250000     306.5606   -10172.485            0    -10114.75   -886.28876    32.817902     34.22419    33.184438    2.5522974    187.08809    2307.4198 
  251000    285.83043    -10170.12            0   -10116.289   -516.46213    32.817902     34.22419    33.184438    2.3305405    188.26539    2305.3159 
  252000    313.86739   -10171.159            0   -10112.048    -14.79589    32.817902     34.22419    33.184438    2.0909756    189.45094    2303.3246 
  253000    296.42038   -10171.341            0   -10115.515   -652.75182    32.817902     34.22419    33.184438    2.4849001    190.65443    2301.5604 
  254000    298.47132   -10170.094            0   -10113.883   -1405.7469    32.817902     34.22419    33.184438     1.878245    191.83711    2299.5539 
  255000    308.02536   -10169.854            0   -10111.842   -593.72287    32.817902     34.22419    33.184438    2.3557276    193.07242    2298.1846 
  256000    296.09779   -10171.162            0   -10115.397     154.1566    32.817902     34.22419    33.184438    2.3619832     194.2811    2296.5023 
  257000     300.8544   -10170.949            0   -10114.289   -264.91057    32.817902     34.22419    33.184438    2.5762197    195.49758    2294.9174 
  258000    308.18877   -10168.403            0   -10110.361    183.16106    32.817902     34.22419    33.184438    2.0066285    196.70443     2293.225 
  259000    310.46289    -10171.99            0    -10113.52   -424.89379    32.817902     34.22419    33.184438    2.9028169    197.90065    2291.4157 
  260000    295.96372   -10170.789            0   -10115.049   -991.41659    32.817902     34.22419    33.184438    2.6517608     199.1333     2290.033 
  261000    299.60818   -10170.921            0   -10114.496   -489.40644    32.817902     34.22419    33.184438    2.6442134    200.34843    2288.4519 
  262000    301.47395   -10168.447            0    -10111.67     -318.864    32.817902     34.22419    33.184438    2.9252934    201.56468    2286.8882 
  263000    295.97399   -10171.541            0     -10115.8   -66.740356    32.817902     34.22419    33.184438    2.3771028    202.81199    2285.6787 
  264000    304.46133   -10172.334            0   -10114.994    -518.7292    32.817902     34.22419    33.184438     2.426245    204.00377    2283.8471 
  265000    301.62749   -10169.717            0    -10112.91     419.2014    32.817902     34.22419    33.184438     2.462323    205.20049    2282.0782 
  266000    303.70417   -10171.091            0   -10113.894   -530.82203    32.817902     34.22419    33.184438    2.6368278    206.44451    2280.8388 
  267000    294.77589   -10171.356            0    -10115.84    -289.7121    32.817902     34.22419    33.184438    2.1404001    207.69163    2279.6333 
  268000    297.83478   -10173.185            0   -10117.093   -879.38725    32.817902     34.22419    33.184438    2.4350324    208.94866    2278.5354 
  269000    302.75185   -10170.167            0    -10113.15   -1059.1498    32.817902     34.22419    33.184438      2.53132    210.24114    2277.8197 
  270000    300.02763    -10171.67            0   -10115.165   -1032.4967    32.817902     34.22419    33.184438    2.1581521    211.50673    2276.8077 
  271000    293.45321   -10172.594            0   -10117.327   -1256.3968    32.817902     34.22419    33.184438    2.6455934    212.68228    2274.8298 
  272000    298.20853   -10170.933            0    -10114.77   -260.41263    32.817902     34.22419    33.184438     1.793698     213.9676    2274.0278 
  273000    302.57332    -10170.37            0   -10113.386   -8.1322404    32.817902     34.22419    33.184438    2.4084634    215.20992    2272.7661 
  274000    302.36595   -10171.243            0   -10114.297   -242.13055    32.817902     34.22419    33.184438    2.5246585    216.48141    2271.8106 
  275000    289.64458   -10171.001            0   -10116.452   -1501.4207    32.817902     34.22419    33.184438     2.113911    217.79158    2271.2551 
  276000    313.20819   -10171.034            0   -10112.047   -505.71755    32.817902     34.22419    33.184438    2.2612721    219.06241    2270.2831 
  277000    307.04528   -10172.522            0   -10114.696    142.50389    32.817902     34.22419    33.184438    2.5408227    220.29423    2268.9061 
  278000    292.41122    -10170.61            0    -10115.54   -672.03646    32.817902     34.22419    33.184438    2.2739026    221.55182    2267.7945 
  279000    310.06528   -10169.542            0   -10111.147   -1355.2668    32.817902     34.22419    33.184438    2.6430612    222.78681    2266.4513 
  280000    298.63921    -10171.63            0   -10115.386   -253.25428    32.817902     34.22419    33.184438    2.8385569     223.9852    2264.7393 
  281000    300.23621   -10171.795            0   -10115.251   -1013.9319    32.817902     34.22419    33.184438    2.0920279    225.19784    2263.1761 
  282000    311.77026   -10169.916            0   -10111.199   -882.77945    32.817902     34.22419    33.184438    2.9440646    226.46543    2262.1657 
  283000    302.70802   -10172.009            0   -10114.999    -971.5213    32.817902     34.22419    33.184438    2.0978159    227.67191    2260.5457 
  284000     299.1367   -10171.503            0   -10115.166    178.01136    32.817902     34.22419    33.184438    2.3279785    228.87704    2258.9169 
  285000    310.97373   -10169.857            0   -10111.291   -2025.0017    32.817902     34.22419    33.184438    2.4296797    230.07308    2257.2035 
  286000    307.24781   -10172.398            0   -10114.534   -359.28199    32.817902     34.22419    33.184438    2.3905812    231.22972    2255.1114 
  287000    296.35097   -10171.196            0   -10115.384   -1492.3926    32.817902     34.22419    33.184438    2.3177575    232.42473    2253.4012 
  288000    303.40245   -10169.421            0   -10112.281   -508.99687    32.817902     34.22419    33.184438    2.7907987    233.63183    2251.8131 
  289000    296.77037   -10172.085            0   -10116.194   -436.36029    32.817902     34.22419    33.184438    2.2469934    234.83659    2250.2067 
  290000    301.40809   -10172.386            0   -10115.621   -561.16137    32.817902     34.22419    33.184438    2.1230195    236.01249    2248.3295 
  291000    303.98665   -10170.304            0   -10113.054   -699.69671    32.817902     34.22419    33.184438    2.1455527    237.23022    2246.8559 
  292000     290.5825   -10172.486            0    -10117.76   -840.59384    32.817902     34.22419    33.184438    1.9896336    238.41499    2245.0745 
  293000    305.42193   -10172.006            0   -10114.485   -361.73215    32.817902     34.22419    33.184438    2.5905166    239.59127    2243.2198 
  294000    302.18854   -10170.956            0   -10114.044    -55.04148    32.817902     34.22419    33.184438    1.9847417    240.79886    2241.6636 
  295000    288.17451   -10173.454            0   -10119.182   -279.69849    32.817902     34.22419    33.184438    2.1696252    241.97217    2239.7937 
  296000    303.43245   -10172.812            0   -10115.666   -1254.3034    32.817902     34.22419    33.184438    2.5282621    243.14168    2237.8958 
  297000    304.27685   -10171.467            0   -10114.162   -761.66124    32.817902     34.22419    33.184438    2.1085488    244.31894    2236.0764 
  298000    292.03887    -10173.52            0    -10118.52   -553.38263    32.817902     34.22419    33.184438    2.4837402     245.5254    2234.5292 
  299000    293.73083   -10170.844            0   -10115.525   -468.27909    32.817902     34.22419    33.184438    2.3129422    246.79084    2233.5191 
  300000    302.01095   -10171.587            0   -10114.708    -1461.458    32.817902     34.22419    33.184438    2.0742449    248.10408    2232.9367 
  301000    288.02312   -10171.593            0   -10117.349   -827.12634    32.817902     34.22419    33.184438     2.104824    249.41031    2232.2843 
  302000    294.44586    -10171.94            0   -10116.486   -941.91364    32.817902     34.22419    33.184438    2.1744852    250.71358    2231.5991 
  303000    304.73189   -10171.576            0   -10114.185   -872.25032    32.817902     34.22419    33.184438    2.4966628    251.98525    2230.6281 
  304000    296.84921   -10172.797            0   -10116.891   -1159.6776    32.817902     34.22419    33.184438    2.1311201    253.21592    2229.2931 
  305000     295.9397   -10172.685            0    -10116.95   -1470.9945    32.817902     34.22419    33.184438    2.4888177    254.48154    2228.2652 
  306000    307.15325   -10171.503            0   -10113.657   -815.74015    32.817902     34.22419    33.184438    2.2082013    255.74884    2227.2496 
  307000    297.17116   -10172.993            0   -10117.026   -1015.9377    32.817902     34.22419    33.184438    2.3926021    257.01126    2226.1894 
  308000     306.8317   -10172.189            0   -10114.403   -1286.2442    32.817902     34.22419    33.184438    2.1383563    258.29148    2225.2805 
  309000    303.31995   -10170.967            0   -10113.842   -825.53464    32.817902     34.22419    33.184438    2.2028201    259.54522    2224.1411 
  310000    300.90108   -10173.473            0   -10116.804   -1085.2096    32.817902     34.22419    33.184438    2.2822424    260.74982    2222.5818 
  311000    306.22437    -10170.15            0   -10112.478   -1057.2166    32.817902     34.22419    33.184438    2.2755147    261.99554    2221.3745 
  312000    305.34713   -10171.501            0   -10113.995   -727.90455    32.817902     34.22419    33.184438    2.1075442    263.19252    2219.7558 
  313000    289.57333   -10170.937            0   -10116.401   -499.70202    32.817902     34.22419    33.184438    2.1848702    264.39934    2218.2236 
  314000    306.12779   -10169.816            0   -10112.162   -428.89035    32.817902     34.22419    33.184438    2.4511351    265.62681    2216.8667 
  315000    304.54851   -10171.692            0   -10114.336   -558.91651    32.817902     34.22419    33.184438    2.3832322    266.81261    2215.1652 
  316000    297.65208   -10171.415            0   -10115.357   -1028.5972    32.817902     34.22419    33.184438    2.1471741    268.03894    2213.8031 
  317000    308.91698   -10171.573            0   -10113.394   -721.13962    32.817902     34.22419    33.184438     2.416342    269.20058    2211.9108 
  318000    296.04777   -10168.705            0    -10112.95   -1228.6329    32.817902     34.22419    33.184438    2.3726234    270.40722     2210.393 
  319000    299.89294   -10172.535            0   -10116.055   -865.52409    32.817902     34.22419    33.184438    2.0046129    271.59026    2208.6861 
  320000    307.05104   -10171.675            0   -10113.847   -384.91616    32.817902     34.22419    33.184438    2.3616431    272.77341    2206.9848 
  321000    310.76023   -10171.555            0   -10113.029   -1073.5837    32.817902     34.22419    33.184438    2.3695946    273.97936    2205.4719 
  322000    291.04105   -10171.274            0   -10116.461   -1294.9906    32.817902     34.22419    33.184438    2.3265266    275.21676    2204.2135 
  323000    302.78963   -10170.532            0   -10113.507   -723.97574    32.817902     34.22419    33.184438    2.2441494    276.35195    2202.1409 
  324000    301.38794   -10171.847            0   -10115.086   -1165.5006    32.817902     34.22419    33.184438    2.1338882    277.53615    2200.4652 
  325000     298.0748   -10172.594            0   -10116.457   -1941.0065    32.817902     34.22419    33.184438    2.0643792    278.69328    2198.5803 
  326000    305.58939   -10171.165            0   -10113.613    153.55412    32.817902     34.22419    33.184438    2.6588522    279.90027    2197.0933 
  327000    292.08595   -10173.058            0   -10118.049   -782.07357    32.817902     34.22419    33.184438     2.136703    281.10717     2195.608 
  328000     282.6084   -10170.697            0   -10117.473   -1008.0816    32.817902     34.22419    33.184438    2.8136783    282.34409    2194.3584 
  329000    299.57988    -10170.62            0   -10114.199   -788.17673    32.817902     34.22419    33.184438    2.0078629    283.55644     2192.919 
  330000    294.85086   -10171.772            0   -10116.242   -1434.8378    32.817902     34.22419    33.184438    2.3032095    284.79477    2191.6815 
  331000     294.3119    -10173.12            0   -10117.692   -1332.1058    32.817902     34.22419    33.184438    2.2973331     285.9975    2190.1713 
  332000    303.87715   -10171.039            0   -10113.809    -117.6402    32.817902     34.22419    33.184438    2.8007736    287.22737    2188.8707 
  333000    292.59637   -10171.149            0   -10116.044   -493.88151    32.817902     34.22419    33.184438     1.993366    288.49616    2187.8657 
  334000    299.72091   -10175.077            0    -10118.63   -827.01943    32.817902     34.22419    33.184438    2.7462652    289.74675    2186.7212 
  335000    291.95822    -10169.42            0   -10114.435   -1323.6788    32.817902     34.22419    33.184438    2.5526147     291.0309    2185.8278 
  336000    300.14072   -10171.294            0   -10114.768   -721.87356    32.817902     34.22419    33.184438    2.2780477    292.26719    2184.5734 
  337000    289.48422   -10173.282            0   -10118.763   -642.06585    32.817902     34.22419    33.184438     2.028693    293.51339    2183.3928 
  338000    292.31989   -10171.429            0   -10116.376   -995.78785    32.817902     34.22419    33.184438    2.5631644    294.78769    2182.4198 
  339000    304.14032   -10171.343            0   -10114.063   -1018.9344    32.817902     34.22419    33.184438    2.3349497    296.08348    2181.6026 
  340000    298.16097   -10174.278            0   -10118.125   -1180.8968    32.817902     34.22419    33.184438    2.2268301    297.36413    2180.6703 
  341000    299.72098   -10172.905            0   -10116.457   -1102.1348    32.817902     34.22419    33.184438    2.4034096    298.62879    2179.6184 
  342000    309.20845   -10173.311            0   -10115.077   -911.56091    32.817902     34.22419    33.184438    2.3839733    299.86605    2178.3658 
  343000     308.9213    -10174.61            0   -10116.431    -1944.353    32.817902     34.22419    33.184438    2.2297097      301.062    2176.8146 
  344000    294.12362   -10171.198            0   -10115.805   -267.90797    32.817902     34.22419    33.184438    2.6273347     302.2791    2175.4184 
  345000     301.8769   -10171.101            0   -10114.248   -486.96136    32.817902     34.22419    33.184438    2.7740661     303.4562    2173.7372 
  346000    294.57328   -10173.528            0    -10118.05   -107.41209    32.817902     34.22419    33.184438    2.4218299    304.67048    2172.3253 
  347000    300.16774   -10172.045            0   -10115.514   -426.18039    32.817902     34.22419    33.184438    2.5875031    305.90694    2171.0723 
  348000    306.65975    -10173.03            0   -10115.276   -408.72505    32.817902     34.22419    33.184438    2.7496532    307.14501    2169.8309 
  349000     293.9093    -10173.03            0   -10117.677    174.89676    32.817902     34.22419    33.184438    2.2580557    308.34234     2168.303 
  350000    299.64548   -10171.433            0       -10115   -968.03587    32.817902     34.22419    33.184438    2.3440107    309.60351    2167.2246 
  351000    307.10344   -10172.838            0       -10115   -1784.5272    32.817902     34.22419    33.184438    2.7630468     310.8706     2166.186 
  352000    301.09918   -10173.974            0   -10117.267   -346.37431    32.817902     34.22419    33.184438    2.6651774    312.08906    2164.8083 
  353000    302.70544   -10172.565            0   -10115.555   -111.65493    32.817902     34.22419    33.184438    2.1524649    313.33948    2163.6525 
  354000    301.77257   -10171.264            0    -10114.43   -1483.0114    32.817902     34.22419    33.184438    2.7787867    314.52337    2162.0386 
  355000    292.93672   -10171.277            0   -10116.108   -695.50607    32.817902     34.22419    33.184438    2.2795137    315.71902    2160.5086 
  356000    291.46042   -10172.965            0   -10118.074   -717.76642    32.817902     34.22419    33.184438    2.1610532    316.89527    2158.8491 
  357000    303.41217    -10170.56            0   -10113.418   -769.07486    32.817902     34.22419    33.184438    2.9904987    318.11328    2157.4765 
  358000    304.33434   -10173.548            0   -10116.232    -914.1754    32.817902     34.22419    33.184438    2.2136657    319.32347    2156.0523 
  359000    300.87274    -10173.64            0   -10116.976   -1779.9957    32.817902     34.22419    33.184438    2.1985695    320.54092    2154.6786 
  360000    300.63384   -10172.094            0   -10115.475   -1117.1717    32.817902     34.22419    33.184438    2.6944924    321.68631    2152.8237 
  361000    295.52031   -10172.875            0   -10117.219   -433.44514    32.817902     34.22419    33.184438     2.422003    322.88456    2151.3267 
  362000    291.52037   -10173.405            0   -10118.502    -1363.226    32.817902     34.22419    33.184438    2.1684303    324.05903     2149.674 
  363000     302.0793   -10172.108            0   -10115.216   -724.43033    32.817902     34.22419    33.184438    2.1054437     325.2855    2148.3685 
  364000    295.30317   -10173.794            0   -10118.179   -1606.7014    32.817902     34.22419    33.184438    2.3693825    326.56603    2147.4191 
  365000    295.35991   -10173.742            0   -10118.116   -727.77184    32.817902     34.22419    33.184438    1.8640122    327.82254    2146.3098 
  366000    293.43892   -10170.515            0   -10115.251   -493.03951    32.817902     34.22419    33.184438     2.530286    329.13179    2145.5433 
  367000    291.00546   -10172.656            0    -10117.85   -1305.2903    32.817902     34.22419    33.184438    2.0300082    330.39597    2144.4802 
  368000    301.63135   -10172.791            0   -10115.984   -1271.9609    32.817902     34.22419    33.184438    2.2703929    331.70346    2143.6955 
  369000    302.62278   -10171.725            0   -10114.731    -121.8608    32.817902     34.22419    33.184438    2.5492774     332.9113    2142.2656 
  370000    290.78162   -10172.097            0   -10117.333   -1803.1135    32.817902     34.22419    33.184438    2.7798004    334.14747     2141.019 
  371000    299.46833   -10172.566            0   -10116.167   -1741.4392    32.817902     34.22419    33.184438    2.3440655    335.41325    2139.9613 
  372000    313.43999   -10171.537            0   -10112.506   -847.25062    32.817902     34.22419    33.184438    3.0162583    336.75499    2139.3846 
  373000    303.73039   -10173.066            0   -10115.864   -992.37423    32.817902     34.22419    33.184438    2.7692258    338.06742     2138.617 
  374000    292.66692   -10172.191            0   -10117.073    -1632.369    32.817902     34.22419    33.184438    2.3086756    339.33164    2137.5416 
  375000    307.59203   -10170.992            0   -10113.062   -717.61253    32.817902     34.22419    33.184438    2.4400501    340.58761    2136.4132 
  376000    304.03263   -10174.137            0   -10116.878   -1474.8098    32.817902     34.22419    33.184438     2.585373     341.8348     2135.229 
  377000    302.02957   -10173.638            0   -10116.756   -210.88351    32.817902     34.22419    33.184438    2.2505261    343.06143    2133.9164 
  378000     304.3779   -10171.585            0   -10114.261   -1042.9297    32.817902     34.22419    33.184438    2.5552537    344.27994    2132.5542 
  379000     293.0621   -10172.126            0   -10116.933   -1196.3875    32.817902     34.22419    33.184438    2.2003306    345.46916    2131.0123 
  380000    291.40691   -10172.018            0   -10117.137   -852.53935    32.817902     34.22419    33.184438    2.2980873    346.65575    2129.4568 
  381000     303.6746   -10171.755            0   -10114.563   -1479.1207    32.817902     34.22419    33.184438    2.4060339    347.84238    2127.9041 
  382000    305.23019   -10173.841            0   -10116.356   -365.68765    32.817902     34.22419    33.184438    2.4535481     349.0584    2126.5331 
  383000    290.64693   -10172.756            0   -10118.017    -269.6839    32.817902     34.22419    33.184438    2.3376625     350.2667    2125.1164 
  384000    304.06373   -10171.049            0   -10113.784   -947.16974    32.817902     34.22419    33.184438    2.1577432    351.43384    2123.4524 
  385000    298.94282   -10172.937            0   -10116.636   -1758.8397    32.817902     34.22419    33.184438    2.4091826    352.64266    2122.0427 
  386000    291.33946   -10171.974            0   -10117.105   -640.65944    32.817902     34.22419    33.184438    2.4608656    353.83803    2120.5538 
  387000    302.04009   -10171.964            0    -10115.08   -1074.8304    32.817902     34.22419    33.184438    2.3687771    355.07386    2119.3085 
  388000    303.91205   -10173.341            0   -10116.105     -1200.39    32.817902     34.22419    33.184438    2.1141743    356.29147    2117.9548 
  389000    297.71855   -10172.367            0   -10116.297    -1076.624    32.817902     34.22419    33.184438    2.1599484    357.47298    2116.3885 
  390000    296.50833   -10171.535            0   -10115.693   -410.79426    32.817902     34.22419    33.184438    2.1849331    358.68853    2115.0255 
  391000    295.06835   -10171.214            0   -10115.643   -727.95121    32.817902     34.22419    33.184438    2.1683283    359.87288    2113.4803 
  392000    302.64444    -10175.47            0   -10118.472   -1330.7853    32.817902     34.22419    33.184438    2.3094473     361.0621     2111.966 
  393000    303.86359   -10171.545            0   -10114.317   -1968.1623    32.817902     34.22419    33.184438    2.0262794    362.22555    2110.3038 
  394000    306.63901   -10173.624            0   -10115.874   -862.35145    32.817902     34.22419    33.184438    2.5973851    363.39122    2108.6579 
  395000    292.78535   -10172.183            0   -10117.042   -1156.2329    32.817902     34.22419    33.184438    2.1856111    364.62831    2107.4281 
  396000    301.28214   -10173.035            0   -10116.294   -332.57804    32.817902     34.22419    33.184438    2.2786318    365.84454     2106.078 
  397000    297.46649   -10171.553            0    -10115.53   -525.93777    32.817902     34.22419    33.184438    3.0344732    367.09595    2104.9307 
  398000    298.91432   -10172.351            0   -10116.056   -256.86624    32.817902     34.22419    33.184438    2.7199966    368.35726    2103.8391 
  399000     290.4574   -10173.981            0   -10119.279   -1772.5727    32.817902     34.22419    33.184438    2.3420893    369.66661    2103.0197 
  400000    300.65014    -10171.28            0   -10114.658   -1713.2806    32.817902     34.22419    33.184438    2.5379214    370.97186    2102.1739 
  401000    297.40174   -10172.406            0   -10116.395   -832.10748    32.817902     34.22419    33.184438    2.2650845    372.21619    2100.9811 
  402000    298.86716   -10175.432            0   -10119.146   -1576.9221    32.817902     34.22419    33.184438    2.3134446    373.44533    2099.7025 
  403000    292.04335   -10174.213            0   -10119.212   -2303.1175    32.817902     34.22419    33.184438    1.9634377    374.72946    2098.7323 
  404000    305.37786   -10173.128            0   -10115.616   -1110.2852    32.817902     34.22419    33.184438    2.2777167    375.99738    2097.6696 
  405000    302.72832   -10174.299            0   -10117.286   -1256.4287    32.817902     34.22419    33.184438    2.9611888     377.2964    2096.7783 
  406000    293.07651   -10173.997            0   -10118.801   -1025.0391    32.817902     34.22419    33.184438    2.5305092     378.5779    2095.7875 
  407000    302.39813     -10173.4            0   -10116.449   -417.33779    32.817902     34.22419    33.184438    2.3373901    379.87699    2094.8917 
  408000    302.36407   -10174.479            0   -10117.534   -334.59309    32.817902     34.22419    33.184438    2.7055308    381.06518     2093.384 
  409000    286.36654   -10174.989            0   -10121.057   -960.73504    32.817902     34.22419    33.184438    2.2215359    382.24174    2091.8149 
  410000    301.25458   -10174.318            0   -10117.582   -1167.4814    32.817902     34.22419    33.184438    2.3811988    383.44751    2090.4074 
  411000    299.91969   -10171.914            0    -10115.43   -264.13405    32.817902     34.22419    33.184438    2.1098012    384.64189    2088.9394 
  412000    296.38878   -10171.789            0    -10115.97   -1178.5277    32.817902     34.22419    33.184438    2.2971829    385.82572    2087.4161 
  413000    292.46403   -10173.832            0   -10118.751   -1112.2564    32.817902     34.22419    33.184438    2.4981495    387.01035    2085.8992 
  414000    300.95123   -10171.314            0   -10114.635   -808.98312    32.817902     34.22419    33.184438    2.3514736     388.2174    2084.5049 
  415000    300.31139   -10172.539            0   -10115.981   -589.87114    32.817902     34.22419    33.184438    2.6108016    389.44067    2083.1985 
  416000    293.81988   -10174.198            0   -10118.862   -1223.0494    32.817902     34.22419    33.184438    2.3720697    390.64722    2081.8036 
  417000    289.37798   -10174.945            0   -10120.446    -1660.654    32.817902     34.22419    33.184438    2.7286717    391.84041    2080.3389 
  418000    302.12774   -10173.501            0   -10116.601   -465.37669    32.817902     34.22419    33.184438    2.4598044    393.04638    2078.9435 
  419000    293.04057   -10171.852            0   -10116.663   -1878.3291    32.817902     34.22419    33.184438    2.8357207    394.23888    2077.4782 
  420000    292.96568    -10174.49            0   -10119.315   -1249.5668    32.817902     34.22419    33.184438    2.3870759    395.43125    2076.0141 
  421000    306.70297    -10173.45            0   -10115.688   -1830.0059    32.817902     34.22419    33.184438    2.8050194    396.64075    2074.6412 
  422000    300.67259   -10172.624            0   -10115.997    -1196.337    32.817902     34.22419    33.184438    2.2686341    397.84515    2073.2427 
  423000    291.79276    -10174.55            0   -10119.596   -1195.4863    32.817902     34.22419    33.184438    1.9714928    399.10253    2072.1206 
  424000    295.56015   -10174.447            0   -10118.783    -1585.927    32.817902     34.22419    33.184438     2.659669    400.29061    2070.6391 
  425000    310.87514   -10174.029            0   -10115.481   -1629.1462    32.817902     34.22419    33.184438    2.3713701    401.50532    2069.2967 
  426000     306.4612   -10175.941            0   -10118.225   -1004.3048    32.817902     34.22419    33.184438    2.9962824    402.70136    2067.8592 
  427000    299.02441   -10173.885            0   -10117.569   -1405.6448    32.817902     34.22419    33.184438    2.2467186    403.89847    2066.4286 
  428000    301.05836    -10171.89            0   -10115.191    -1296.981    32.817902     34.22419    33.184438    2.3834869     405.0836    2064.9384 
  429000    290.93156   -10173.275            0   -10118.483   -568.84541    32.817902     34.22419    33.184438    2.3297423    406.36433    2063.9355 
  430000     308.7826   -10172.214            0   -10114.061   -1310.1446    32.817902     34.22419    33.184438    2.1527684     407.6556    2062.9844 
  431000    301.57354   -10173.094            0   -10116.298   -751.63734    32.817902     34.22419    33.184438    2.7383508    408.94352    2062.0143 
  432000    299.18766   -10174.165            0   -10117.818   -943.64699    32.817902     34.22419    33.184438    2.6194735    410.21551    2060.9623 
  433000    303.21937   -10170.337            0   -10113.231   -698.81071    32.817902     34.22419    33.184438    3.0308185    411.46474     2059.795 
  434000    301.38768   -10172.311            0    -10115.55   -1216.4208    32.817902     34.22419    33.184438    2.1457709    412.66998    2058.4077 
  435000    295.49103   -10172.835            0   -10117.185   -839.03471    32.817902     34.22419    33.184438    1.8611954    413.91504    2057.2195 
  436000    291.56248   -10171.468            0   -10116.558   -1072.2372    32.817902     34.22419    33.184438    3.2755106    415.19194    2056.1886 
  437000    302.06392    -10171.19            0   -10114.302   -354.92104    32.817902     34.22419    33.184438    2.3368175    416.49707    2055.2956 
  438000    285.52541   -10172.045            0   -10118.271   -1541.7118    32.817902     34.22419    33.184438    3.0060715    417.80752    2054.4264 
  439000    303.28224   -10173.825            0   -10116.707   -675.26463    32.817902     34.22419    33.184438    2.7168675    419.13384    2053.6322 
  440000    304.36933   -10173.371            0   -10116.049   -1035.7051    32.817902     34.22419    33.184438    2.3554058    420.34466     2052.271 
  441000    301.11526   -10174.182            0   -10117.472    -407.0247    32.817902     34.22419    33.184438    3.1910361    421.57866    2051.0234 
  442000    296.23902   -10174.718            0   -10118.927   -1179.7002    32.817902     34.22419    33.184438      3.02001    422.79313    2049.6813 
  443000    307.39195   -10173.708            0   -10115.816   -727.27529    32.817902     34.22419    33.184438    2.3669687    424.00102    2048.3081 
  444000    298.56998   -10172.979            0   -10116.748   -1660.9823    32.817902     34.22419    33.184438    2.2766366    425.17354    2046.7657 
  445000    290.47762   -10173.786            0    -10119.08    431.17768    32.817902     34.22419    33.184438    2.1347018    426.36753    2045.3283 
  446000    295.87483   -10171.877            0   -10116.154    -1462.089    32.817902     34.22419    33.184438     2.232905    427.61344    2044.1406 
  447000     303.1334   -10174.048            0   -10116.958   -461.08742    32.817902     34.22419    33.184438    2.4493531    428.83004    2042.8128 
  448000    296.05908   -10173.173            0   -10117.416   -1632.3439    32.817902     34.22419    33.184438    2.5934354    430.06267    2041.5619 
  449000    300.85137   -10173.772            0   -10117.112   -845.42513    32.817902     34.22419    33.184438    2.5259941    431.27377    2040.2092 
  450000    309.73724   -10172.372            0   -10114.038   -809.09127    32.817902     34.22419    33.184438    2.0664076      432.436    2038.6269 
  451000    297.66026   -10174.278            0   -10118.219    -1116.601    32.817902     34.22419    33.184438     2.787158    433.62909     2037.192 
  452000    293.55109   -10173.006            0   -10117.721   -170.35852    32.817902     34.22419    33.184438    2.3621215    434.84473     2035.864 
  453000    316.00672   -10173.386            0   -10113.872   -1433.0178    32.817902     34.22419    33.184438    2.2481893     436.0587    2034.5289 
  454000    293.21353   -10174.376            0   -10119.155    -803.2053    32.817902     34.22419    33.184438    2.5440395    437.26543    2033.1608 
  455000    299.85628   -10173.148            0   -10116.675   -856.57666    32.817902     34.22419    33.184438    2.2184351    438.47369    2031.8006 
  456000    299.25795   -10172.708            0   -10116.348   -1200.0876    32.817902     34.22419    33.184438    2.8118395    439.68791    2030.4689 
  457000    291.41573   -10174.662            0   -10119.779   -2211.9054    32.817902     34.22419    33.184438    2.1220726    440.89341    2029.0977 
  458000    299.73116   -10173.556            0   -10117.107   -1331.5697    32.817902     34.22419    33.184438    2.1784279    442.09486    2027.7088 
  459000    296.58788    -10172.81            0   -10116.953   -1403.4128    32.817902     34.22419    33.184438    3.0055089     443.2603    2026.1564 
  460000    289.73421   -10174.403            0   -10119.837   -835.26653    32.817902     34.22419    33.184438    2.2922791    444.45511    2024.7399 
  461000    304.28361   -10173.201            0   -10115.895    -388.8004    32.817902     34.22419    33.184438    2.7035465     445.6484    2023.3178 
  462000    297.31858    -10172.52            0   -10116.526   -525.49693    32.817902     34.22419    33.184438    2.6338898    446.92619    2022.2793 
  463000     303.2381   -10174.461            0   -10117.351   -581.53802    32.817902     34.22419    33.184438    2.2379855    448.19725    2021.2091 
  464000     295.8265   -10172.938            0   -10117.224   -732.34628    32.817902     34.22419    33.184438    2.7080209    449.49434    2020.2548 
  465000    309.12126   -10173.709            0   -10115.492   -1323.1808    32.817902     34.22419    33.184438    3.2215389    450.76364    2019.1741 
  466000    307.73302   -10175.405            0   -10117.449   -104.96287    32.817902     34.22419    33.184438    2.7677745    451.98696    2017.8872 
  467000    291.12711   -10173.807            0   -10118.979   -1046.1064    32.817902     34.22419    33.184438    2.9028897    453.25018    2016.7781 
  468000    310.26357   -10172.656            0   -10114.223   -1110.5707    32.817902     34.22419    33.184438    2.8922598    454.49136    2015.5704 
  469000    303.94315   -10172.837            0   -10115.595   -1299.2694    32.817902     34.22419    33.184438    2.2299062    455.76824    2014.5203 
  470000     295.8599   -10174.481            0   -10118.762   -1029.2604    32.817902     34.22419    33.184438    2.3695404    457.08081    2013.6263 
  471000    309.46473   -10173.314            0   -10115.032   -1783.8641    32.817902     34.22419    33.184438     2.649584    458.37847    2012.6645 
  472000    312.59458   -10174.504            0   -10115.632   -519.56005    32.817902     34.22419    33.184438    2.1723893    459.61777    2011.4455 
  473000    289.02524   -10172.207            0   -10117.774    -591.9677    32.817902     34.22419    33.184438    2.1511463    460.82892    2010.1037 
  474000    301.52996   -10174.074            0   -10117.286   -1647.8355    32.817902     34.22419    33.184438    2.7751314    462.01219    2008.6413 
  475000     304.8712    -10172.96            0   -10115.543   -551.04358    32.817902     34.22419    33.184438    2.6099987    463.18728    2007.1449 
  476000    301.67127   -10173.859            0   -10117.045    -905.7554    32.817902     34.22419    33.184438    2.3259912    464.43367    2005.9582 
  477000    294.12986   -10174.271            0   -10118.877   -1044.2826    32.817902     34.22419    33.184438    2.4912843    465.61814    2004.5046 
  478000    313.77312    -10173.71            0   -10114.617   -1744.9723    32.817902     34.22419    33.184438    2.1154922    466.81388    2003.1008 
  479000    298.77897   -10173.264            0   -10116.995   -817.61594    32.817902     34.22419    33.184438    2.0272158    467.99669    2001.6428 
  480000    298.94385   -10174.984            0   -10118.684    -1199.927    32.817902     34.22419    33.184438    2.3772546    469.17964    2000.1869 
  481000    301.65707   -10173.288            0   -10116.477   -1645.7649    32.817902     34.22419    33.184438    2.3650169    470.42323      1998.99 
  482000    300.69429   -10173.679            0   -10117.049   -870.90735    32.817902     34.22419    33.184438    2.6473725    471.58755    1997.4572 
  483000    299.47716   -10175.901            0     -10119.5    -1333.064    32.817902     34.22419    33.184438     2.761835    472.79831    1996.1224 
  484000    305.18415   -10172.146            0    -10114.67   -665.44559    32.817902     34.22419    33.184438    2.4180312    473.97994    1994.6656 
  485000    298.81659   -10174.083            0   -10117.806   -1094.7713    32.817902     34.22419    33.184438    2.4701121     475.1729    1993.2578 
  486000    294.67155   -10173.998            0   -10118.501   -745.66525    32.817902     34.22419    33.184438    2.9976692    476.37008    1991.8687 
  487000    314.24349   -10172.953            0   -10113.771   -1071.9845    32.817902     34.22419    33.184438    2.3088205    477.58303    1990.5463 
  488000    298.23841   -10173.766            0   -10117.599   -1261.6389    32.817902     34.22419    33.184438    2.9140148    478.79622    1989.2255 
  489000    297.45033   -10174.345            0   -10118.326   -848.68389    32.817902     34.22419    33.184438    2.3129204    480.00801    1987.8995 
  490000    309.65377   -10172.357            0   -10114.039    -139.3698    32.817902     34.22419    33.184438    2.8295022    481.20171    1986.4994 
  491000    299.47261   -10173.754            0   -10117.354   -1398.8042    32.817902     34.22419    33.184438    2.0664561    482.38521    1985.0583 
  492000    303.63282   -10175.014            0    -10117.83   -1536.8584    32.817902     34.22419    33.184438    2.3945192    483.59951    1983.7449 
  493000    303.97653   -10171.103            0   -10113.854    43.850185    32.817902     34.22419    33.184438    2.8167656    484.81301    1982.4288 
  494000    308.22652   -10175.951            0   -10117.902   -659.73329    32.817902     34.22419    33.184438    2.1543237    486.05719    1981.2382 
  495000     303.2784   -10175.477            0    -10118.36   -982.22048    32.817902     34.22419    33.184438    1.9848004    487.31362    1980.0971 
  496000    313.02506   -10173.913            0   -10114.961    293.65857    32.817902     34.22419    33.184438    2.1156295    488.56475     1978.934 
  497000    281.43875   -10172.445            0   -10119.441    165.63135    32.817902     34.22419    33.184438    2.4750047    489.81337    1977.7603 
  498000    303.99841   -10174.986            0   -10117.733   -1304.4822    32.817902     34.22419    33.184438    2.5793774    491.09188    1976.7065 
  499000    305.63135   -10173.629            0   -10116.068   -549.55137    32.817902     34.22419    33.184438    2.1179109    492.29969    1975.3679 
  500000    289.46331   -10174.923            0   -10120.408   -973.79742    32.817902     34.22419    33.184438    2.5854544    493.57226     1974.289 
  501000    307.75489   -10174.741            0   -10116.781   -782.67222    32.817902     34.22419    33.184438    2.0337579     494.8585    1973.2637 
  502000    291.03005   -10172.849            0   -10118.039    -800.3536    32.817902     34.22419    33.184438    2.1905309    496.12075    1972.1417 
  503000    291.62803   -10176.397            0   -10121.474   -672.89418    32.817902     34.22419    33.184438    2.2541454    497.40668    1971.1128 
  504000    302.60185   -10174.761            0   -10117.771   -847.83001    32.817902     34.22419    33.184438     2.696996    498.69282    1970.0835 
  505000    305.79566   -10174.143            0   -10116.552   -1404.4305    32.817902     34.22419    33.184438    2.1020087    499.88789    1968.6943 
  506000    295.01847   -10176.169            0   -10120.608    -955.0245    32.817902     34.22419    33.184438    2.0523402    501.12813    1967.4833 
  507000    302.79626   -10174.932            0   -10117.905   -807.03109    32.817902     34.22419    33.184438    2.3534975    502.31474    1966.0624 
  508000    302.55061   -10173.979            0   -10116.999   -1472.1501    32.817902     34.22419    33.184438    1.9407366     503.5489    1964.8281 
  509000    296.96178   -10175.818            0   -10119.891   -1033.3838    32.817902     34.22419    33.184438    2.7648053     504.8043    1963.6764 
  510000    290.73619   -10176.665            0    -10121.91   -966.15777    32.817902     34.22419    33.184438    2.4393145    506.04797    1962.4787 
  511000    297.40669   -10172.788            0   -10116.777   -939.50421    32.817902     34.22419    33.184438    2.2169083    507.23315    1961.0547 
  512000    294.35544   -10172.971            0   -10117.535   -1346.7221    32.817902     34.22419    33.184438    2.3522481    508.44002    1959.7154 
  513000     299.1126   -10176.605            0   -10120.272    -931.2514    32.817902     34.22419    33.184438     2.518787    509.64597    1958.3733 
  514000    307.47297   -10173.435            0   -10115.528   -1569.2276    32.817902     34.22419    33.184438    2.3163477     510.8407    1956.9888 
  515000    300.47145   -10175.254            0   -10118.666   -1147.4859    32.817902     34.22419    33.184438    2.1486861    512.06827    1955.7306 
  516000    296.83932   -10174.379            0   -10118.474   -1208.9988    32.817902     34.22419    33.184438    2.1689583    513.26301    1954.3476 
  517000    301.39711   -10171.623            0    -10114.86   -848.49715    32.817902     34.22419    33.184438    2.1154522    514.47251    1953.0215 
  518000    302.78408   -10175.414            0   -10118.391   -646.52039    32.817902     34.22419    33.184438     2.825156    515.70792    1951.7941 
  519000    307.31821   -10175.116            0   -10117.238   -774.75775    32.817902     34.22419    33.184438    2.3553781     516.8915     1950.371 
  520000    302.47697   -10171.813            0   -10114.847   -1505.9185    32.817902     34.22419    33.184438    3.1710496     518.0479    1948.8469 
  521000    309.15646   -10175.836            0   -10117.612   -1527.0436    32.817902     34.22419    33.184438    1.9884906    519.25432     1947.512 
  522000    297.30918   -10173.548            0   -10117.555    -346.4369    32.817902     34.22419    33.184438    2.2612922    520.44027    1946.1013 
  523000    306.39745   -10172.167            0   -10114.463   -2272.1786    32.817902     34.22419    33.184438    2.1479518    521.61722    1944.6581 
  524000    303.23033   -10175.198            0    -10118.09   -126.04285    32.817902     34.22419    33.184438    2.3347534    522.86346    1943.4736 
  525000    304.01005   -10175.622            0   -10118.367   -1494.5341    32.817902     34.22419    33.184438    2.5329575    524.10684    1942.2783 
  526000    310.13975   -10172.569            0   -10114.159   -429.78588    32.817902     34.22419    33.184438    2.5587726    525.31081    1940.9371 
  527000    299.04267    -10174.21            0   -10117.891   -803.84914    32.817902     34.22419    33.184438    2.4101292    526.57317    1939.8117 
  528000    303.96041   -10175.399            0   -10118.154   -1189.2292    32.817902     34.22419    33.184438    2.2078353    527.86228    1938.7839 
  529000    305.73211   -10173.005            0   -10115.426   -1530.2103    32.817902     34.22419    33.184438    2.7399742    529.11985    1937.6394 
  530000    298.81382   -10173.451            0   -10117.175   -942.04569    32.817902     34.22419    33.184438    2.5409467      530.414    1936.6279 
  531000    290.30709   -10173.658            0   -10118.984   -1187.1434    32.817902     34.22419    33.184438    2.6159702     531.7073    1935.6119 
  532000    301.07055   -10171.651            0    -10114.95     -1341.96    32.817902     34.22419    33.184438    2.5806064      532.956    1934.4329 
  533000     287.7837   -10173.332            0   -10119.133   -927.33355    32.817902     34.22419    33.184438    2.2214156    534.21863    1933.3039 
  534000    293.49621   -10173.431            0   -10118.156   -156.19855    32.817902     34.22419    33.184438    2.6615202    535.48896    1932.2021 
  535000    312.87088   -10174.717            0   -10115.794   -1987.0514    32.817902     34.22419    33.184438    2.5466931    536.78343    1931.1864 
  536000    296.27534   -10176.013            0   -10120.215   -1255.1814    32.817902     34.22419    33.184438    2.3024121    538.10551    1930.2684 
  537000    301.51307   -10175.068            0   -10118.284   -1422.6691    32.817902     34.22419    33.184438    2.0475419    539.36308    1929.1178 
  538000    306.27722    -10174.85            0   -10117.168   -1676.1596    32.817902     34.22419    33.184438    2.0487677    540.54047    1927.6809 
  539000    305.47146   -10175.365            0   -10117.835   -1193.3409    32.817902     34.22419    33.184438    2.1783225    541.74587    1926.3447 
  540000    295.71171   -10176.531            0   -10120.839   -808.02641    32.817902     34.22419    33.184438    2.3307486    542.95339    1925.0166 
  541000    292.70219    -10174.75            0   -10119.625   -1078.6322    32.817902     34.22419    33.184438    2.2828526    544.12939    1923.5776 
  542000    298.96699   -10173.559            0   -10117.254   -1277.4731    32.817902     34.22419    33.184438    2.3465758    545.30996    1922.1559 
  543000    293.83057   -10175.537            0   -10120.199   -772.51716    32.817902     34.22419    33.184438    2.0727018     546.5144    1920.8192 
  544000    300.80504   -10174.512            0   -10117.861   -1952.7933    32.817902     34.22419    33.184438    2.4246198    547.75137    1919.5972 
  545000    304.13593   -10174.038            0    -10116.76   -2086.5473    32.817902     34.22419    33.184438    2.4110002    548.94705    1918.2307 
  546000    289.67721   -10174.448            0   -10119.892   -1665.8191    32.817902     34.22419    33.184438    2.0990464    550.16923    1916.9574 
  547000     302.0258   -10172.037            0   -10115.155   -1182.9469    32.817902     34.22419    33.184438    2.2593188    551.37244    1915.6183 
  548000    294.08621   -10173.311            0   -10117.925   -1181.6517    32.817902     34.22419    33.184438    2.0757908    552.56815    1914.2539 
  549000     294.2048   -10174.271            0   -10118.863   -1653.3428    32.817902     34.22419    33.184438    2.1678011    553.76033    1912.8781 
  550000    311.02317   -10172.651            0   -10114.076   -1852.9269    32.817902     34.22419    33.184438     2.286018    555.01463    1911.7171 
  551000    300.56602   -10173.094            0   -10116.488   -1327.2257    32.817902     34.22419    33.184438    2.8369575    556.20952    1910.3516 
  552000    292.36504   -10174.354            0   -10119.293   -1046.9106    32.817902     34.22419    33.184438    2.3852344     557.3845    1908.9186 
  553000    303.90023   -10172.565            0   -10115.331   -796.56147    32.817902     34.22419    33.184438     2.600958    558.58102    1907.5604 
  554000    299.34635     -10173.3            0   -10116.924   -1584.0616    32.817902     34.22419    33.184438    2.2196848    559.77211    1906.1843 
  555000    297.15885   -10174.577            0   -10118.612    -1739.663    32.817902     34.22419    33.184438    2.4958558    560.94716    1904.7547 
  556000    309.32135   -10174.919            0   -10116.664   -729.49463    32.817902     34.22419    33.184438    2.1187655    562.13103     1903.356 
  557000    299.06271   -10172.254            0   -10115.931   -1336.6497    32.817902     34.22419    33.184438    2.6933883    563.33679    1902.0321 
  558000     292.6553   -10174.428            0   -10119.311   -1230.1795    32.817902     34.22419    33.184438     2.348892    564.55498    1900.7506 
  559000    304.30929    -10173.84            0   -10116.529   -1797.7999    32.817902     34.22419    33.184438    2.3696845    565.76239    1899.4332 
  560000    310.87601   -10171.472            0   -10112.924   -1330.6175    32.817902     34.22419    33.184438     2.357433    567.01731    1898.2753 
  561000    304.92332   -10175.361            0   -10117.934   -11.663872    32.817902     34.22419    33.184438    2.1019645    568.25425     1897.057 
  562000    290.32421   -10174.092            0   -10119.414    93.228417    32.817902     34.22419    33.184438    2.4328099    569.56962    1896.0997 
  563000    305.94646   -10173.103            0   -10115.484   -394.47998    32.817902     34.22419    33.184438    2.9672915    570.88101    1895.1277 
  564000    302.32644   -10174.793            0   -10117.855   -929.33476    32.817902     34.22419    33.184438    2.1577593    572.14062    1893.9827 
  565000    300.02099   -10174.899            0   -10118.396   -183.94132    32.817902     34.22419    33.184438    2.1835936    573.39973    1892.8357 
  566000    315.43309   -10175.153            0   -10115.747   -2158.3151    32.817902     34.22419    33.184438    2.2251304    574.67772    1891.7503 
  567000    298.69706    -10175.83            0   -10119.576   -916.46566    32.817902     34.22419    33.184438    2.0030968    576.03562    1890.9263 
  568000    298.08831   -10174.728            0   -10118.588   -370.55203    32.817902     34.22419    33.184438    2.5198649    577.29928    1889.7917 
  569000    308.35611   -10174.465            0   -10116.391    -1050.242    32.817902     34.22419    33.184438    2.0138138    578.59518    1888.7617 
  570000    299.34726   -10176.427            0    -10120.05   -1161.7752    32.817902     34.22419    33.184438    2.9967501    579.83265    1887.5403 
  571000    302.30091   -10175.362            0   -10118.429   -1903.5783    32.817902     34.22419    33.184438    2.4557723      581.009    1886.1205 
  572000    307.38547   -10175.219            0   -10117.329   -1313.4509    32.817902     34.22419    33.184438    2.3099352    582.20399    1884.7621 
  573000    297.83768   -10177.101            0   -10121.008    -1551.149    32.817902     34.22419    33.184438    1.8640369    583.39964    1883.4064 
  574000    301.42289   -10175.339            0   -10118.572   -833.40264    32.817902     34.22419    33.184438      2.32822    584.62075    1882.1335 
  575000    297.60675   -10174.469            0    -10118.42   -898.34975    32.817902     34.22419    33.184438    2.6982691    585.86846    1880.9461 
  576000    295.04646    -10173.45            0   -10117.883   -1663.8503    32.817902     34.22419    33.184438    2.2085539    587.05138    1879.5511 
  577000    303.82737   -10172.746            0   -10115.525   -659.32362    32.817902     34.22419    33.184438    2.2986204    588.30863    1878.3942 
  578000    294.14039    -10175.25            0   -10119.854   -935.50542    32.817902     34.22419    33.184438    2.7673807    589.49467    1877.0102 
  579000    295.81967   -10174.331            0   -10118.618   -1501.5019    32.817902     34.22419    33.184438    2.4219096    590.71084    1875.7227 
  580000    308.35526   -10172.149            0   -10114.076   -63.094603    32.817902     34.22419    33.184438    2.4462369    591.92515    1874.4296 
  581000    300.14898   -10172.438            0   -10115.911   -943.13467    32.817902     34.22419    33.184438    2.6424509    593.16117    1873.2054 
  582000    296.61445   -10175.596            0   -10119.734   -686.05498    32.817902     34.22419    33.184438    3.1090316    594.38912    1871.9558 
  583000    305.37375    -10174.49            0   -10116.978   -1150.1172    32.817902     34.22419    33.184438    2.4910817     595.5857    1870.6077 
  584000    309.24381   -10174.576            0   -10116.336   -819.66298    32.817902     34.22419    33.184438    2.6078254    596.83465    1869.4242 
  585000    301.36742   -10174.602            0   -10117.845    -908.5577    32.817902     34.22419    33.184438    2.5420462    598.04164    1868.1094 
  586000    298.68882   -10174.319            0   -10118.066   -108.36863    32.817902     34.22419    33.184438    2.3603035    599.25037    1866.8005 
  587000    301.57598   -10176.619            0   -10119.822   -844.60131    32.817902     34.22419    33.184438    2.1131688    600.46546    1865.5118 
  588000    293.85765    -10172.73            0   -10117.387   -947.17272    32.817902     34.22419    33.184438    2.4478664    601.65017    1864.1292 
  589000    302.54907   -10173.682            0   -10116.703   -1600.8961    32.817902     34.22419    33.184438    2.4845145    602.83858    1862.7589 
  590000    303.61317   -10176.286            0   -10119.106   -269.41266    32.817902     34.22419    33.184438    1.9965114    604.03612    1861.4174 
  591000    298.93416   -10173.773            0   -10117.474    58.435425    32.817902     34.22419    33.184438    2.4181754    605.26274     1860.166 
  592000    308.63856   -10173.708            0   -10115.582   -1120.4385    32.817902     34.22419    33.184438    2.4393673    606.52006    1859.0086 
  593000    295.05926   -10174.838            0   -10119.269   -1156.9832    32.817902     34.22419    33.184438    1.9900804    607.80346    1857.9307 
  594000    304.36393   -10176.123            0   -10118.802   -835.94169    32.817902     34.22419    33.184438    2.0809853    609.07335    1856.8107 
  595000    295.69073   -10171.383            0   -10115.695   -483.47224    32.817902     34.22419    33.184438    2.1929662    610.31535    1855.6053 
  596000    294.51218   -10176.207            0   -10120.741   -271.30811    32.817902     34.22419    33.184438    2.4094589    611.64298    1854.6594 
  597000    301.89661   -10174.357            0   -10117.501   -901.26301    32.817902     34.22419    33.184438    2.2051321    612.85744    1853.3697 
  598000    303.20273   -10174.296            0   -10117.193   -1027.8701    32.817902     34.22419    33.184438    2.5322999    614.11851    1852.2209 
  599000    291.08361   -10176.125            0   -10121.304   -879.06479    32.817902     34.22419    33.184438    2.0164772    615.43367    1851.2343 
  600000    305.18949   -10175.537            0    -10118.06   -712.68323    32.817902     34.22419    33.184438    2.3684392    616.69089    1850.0727 
  601000    300.72628   -10174.427            0    -10117.79   -601.00037    32.817902     34.22419    33.184438    2.7938957    617.95114    1848.9197 
  602000    289.16658   -10176.876            0   -10122.417   -546.46372    32.817902     34.22419    33.184438    2.4244024    619.24122    1847.8553 
  603000    301.15945   -10175.467            0   -10118.749   -622.58135    32.817902     34.22419    33.184438    2.1719329    620.45839     1846.573 
  604000    304.37616   -10174.958            0   -10117.634   -1261.9377    32.817902     34.22419    33.184438    1.9546093      621.705    1845.3783 
  605000    289.79369   -10175.781            0   -10121.204   -919.20232    32.817902     34.22419    33.184438    2.4472231    622.90094    1844.0335 
  606000    301.80842   -10175.376            0   -10118.535   -2112.0881    32.817902     34.22419    33.184438    3.1546788    624.07547     1842.626 
  607000    301.34916   -10174.548            0   -10117.794   -382.65249    32.817902     34.22419    33.184438    2.4390872    625.29167    1841.3421 
  608000    289.74124   -10175.149            0   -10120.581   -688.89511    32.817902     34.22419    33.184438    2.0150513    626.50868    1840.0609 
  609000    295.84795   -10176.889            0   -10121.171   -346.67012    32.817902     34.22419    33.184438    2.5239298      627.704    1838.7164 
  610000    294.67271   -10172.706            0    -10117.21   -784.33236    32.817902     34.22419    33.184438    2.3933088    628.88078    1837.3184 
  611000    296.77522   -10175.404            0   -10119.512   -1435.2733    32.817902     34.22419    33.184438    2.7878977    630.10633    1836.0633 
  612000    294.12055   -10175.946            0   -10120.554   -900.34124    32.817902     34.22419    33.184438    2.1337709       631.41    1835.0353 
  613000     293.9599   -10173.316            0   -10117.954   -1357.0535    32.817902     34.22419    33.184438    1.9720299    632.59779    1833.6704 
  614000    297.85596   -10173.635            0    -10117.54   -684.87031    32.817902     34.22419    33.184438    2.8630643    633.83164    1832.4393 
  615000    292.76684    -10176.37            0   -10121.232    -748.5286    32.817902     34.22419    33.184438    2.3773452    635.01134    1831.0521 
  616000    300.30541    -10173.88            0   -10117.323   -1449.6741    32.817902     34.22419    33.184438    2.1980565    636.22177    1829.7541 
  617000    305.16537   -10175.654            0   -10118.182   -1731.1118    32.817902     34.22419    33.184438    2.6256026    637.41789    1828.4153 
  618000    297.25777   -10176.218            0   -10120.235   -991.91328    32.817902     34.22419    33.184438    3.0227004    638.63468    1827.1363 
  619000    306.34825   -10173.321            0   -10115.626   -1315.4086    32.817902     34.22419    33.184438    1.7814544    639.83964    1825.8237 
  620000     309.2468   -10176.982            0   -10118.741   -1166.3171    32.817902     34.22419    33.184438    2.8834922    641.08668    1824.6313 
  621000    308.10377   -10177.066            0    -10119.04   -482.48406    32.817902     34.22419    33.184438    2.1108496     642.2397    1823.1718 
  622000    297.03008   -10173.826            0   -10117.886   -301.74453    32.817902     34.22419    33.184438    2.2676481    643.42388    1821.8017 
  623000    310.98157   -10172.697            0   -10114.129   -2004.1598    32.817902     34.22419    33.184438    2.7299003    644.61048    1820.4392 
  624000    296.67336    -10174.42            0   -10118.547   -1771.8918    32.817902     34.22419    33.184438    2.4099336    645.84696    1819.2178 
  625000    296.81664   -10174.869            0   -10118.969    -1038.446    32.817902     34.22419    33.184438    2.1876991    647.10697    1818.0624 
  626000    300.60131   -10171.815            0   -10115.202   -826.36341    32.817902     34.22419    33.184438    2.6467481    648.34836    1816.8545 
  627000    296.45933   -10175.472            0   -10119.639   -456.16029    32.817902     34.22419    33.184438    2.2974124    649.64327    1815.7961 
  628000     303.3372   -10175.407            0   -10118.279   -1757.7299    32.817902     34.22419    33.184438    2.1754602    650.92406    1814.6974 
  629000    302.33034   -10173.351            0   -10116.413   -1365.4753    32.817902     34.22419    33.184438    2.2170011    652.16697    1813.4927 
  630000    290.12716   -10175.651            0   -10121.011   -1118.5073    32.817902     34.22419    33.184438    2.8153032    653.42313    1812.3245 
  631000     298.7508   -10173.854            0    -10117.59   -289.12004    32.817902     34.22419    33.184438    2.3347279    654.67969    1811.1572 
  632000    310.96697   -10176.266            0   -10117.701   -1153.4308    32.817902     34.22419    33.184438    2.4707936    655.96025    1810.0557 
  633000    300.96052   -10177.445            0   -10120.765   -434.04765    32.817902     34.22419    33.184438    2.3086758     657.2864    1809.0791 
  634000    290.31719   -10177.801            0   -10123.125    -596.0009    32.817902     34.22419    33.184438    2.4821082    658.58663      1808.03 
  635000    299.80101    -10175.09            0   -10118.628   -440.28262    32.817902     34.22419    33.184438    2.2326547    659.84396    1806.8624 
  636000     299.9022   -10173.461            0    -10116.98   -367.80599    32.817902     34.22419    33.184438    2.3955367     661.0494    1805.5528 
  637000     304.0261    -10177.95            0   -10120.692   -1107.1776    32.817902     34.22419    33.184438    2.6531601    662.23225    1804.1821 
  638000    305.81146   -10175.552            0   -10117.957   -901.91346    32.817902     34.22419    33.184438    2.7223925    663.41719    1802.8177 
  639000    306.02096   -10175.611            0   -10117.978   -1718.6024    32.817902     34.22419    33.184438    1.8614557    664.59201    1801.4266 
  640000    290.07382   -10175.289            0   -10120.659   -1138.3374    32.817902     34.22419    33.184438     2.145957    665.77791    1800.0662 
  641000    308.52177   -10174.176            0   -10116.071   -131.48038    32.817902     34.22419    33.184438    2.3935486    666.99267    1798.7843 
  642000     301.3619   -10175.329            0   -10118.573   -1844.9056    32.817902     34.22419    33.184438    2.2139424    668.15911    1797.3727 
  643000    302.02432   -10176.683            0   -10119.802   -1157.6689    32.817902     34.22419    33.184438    2.4326575    669.38668     1796.126 
  644000    294.14683   -10173.476            0   -10118.079   -1651.6228    32.817902     34.22419    33.184438    2.0428711    670.59445    1794.8263 
  645000    300.80569    -10174.94            0   -10118.288   -1027.0383    32.817902     34.22419    33.184438    2.3482441    671.82835    1793.5968 
  646000    295.97107   -10175.447            0   -10119.707   -504.42031    32.817902     34.22419    33.184438    2.0588098    673.02393    1792.2652 
  647000      299.674   -10177.368            0    -10120.93   -1646.3115    32.817902     34.22419    33.184438    2.3408406    674.19804    1790.8771 
  648000     299.4157   -10173.203            0   -10116.814   -489.62384    32.817902     34.22419    33.184438    2.6637531    675.46501    1789.7358 
  649000    296.12302   -10174.572            0   -10118.803   -564.10036    32.817902     34.22419    33.184438    2.2942804    676.65957    1788.4026 
  650000    293.83857   -10176.235            0   -10120.896   -1355.7794    32.817902     34.22419    33.184438    2.4826569    677.84631    1787.0494 
  651000    298.32693   -10174.753            0   -10118.569   -672.40783    32.817902     34.22419    33.184438     2.250825    679.07708    1785.8125 
  652000    297.82654   -10173.036            0   -10116.946   -973.92177    32.817902     34.22419    33.184438    2.6654677    680.26392    1784.4604 
  653000      300.613   -10177.459            0   -10120.844    53.605056    32.817902     34.22419    33.184438    2.0668453     681.4581    1783.1282 
  654000    299.78481    -10174.41            0   -10117.951   -689.41987    32.817902     34.22419    33.184438    2.7879141      682.656    1781.8061 
  655000    300.65847   -10174.141            0   -10117.518   -40.886827    32.817902     34.22419    33.184438    2.6592732    683.84354    1780.4575 
  656000      296.128   -10175.735            0   -10119.965    -1787.821    32.817902     34.22419    33.184438     2.219158    685.06099    1779.1872 
  657000    297.56986   -10175.145            0   -10119.103   -2035.1393    32.817902     34.22419    33.184438    2.8920397    686.31052    1778.0002 
  658000    315.69341   -10175.725            0    -10116.27   -248.88693    32.817902     34.22419    33.184438    2.3113875    687.58791    1776.8849 
  659000    297.76387   -10176.094            0   -10120.016   -1695.1014    32.817902     34.22419    33.184438    2.8740133    688.92382    1775.9199 
  660000    299.97348   -10174.949            0   -10118.454   -833.19511    32.817902     34.22419    33.184438    2.1569636    690.22608    1774.8671 
  661000    309.89706   -10173.194            0    -10114.83   -1405.0327    32.817902     34.22419    33.184438     1.917879    691.54802    1773.8638 
  662000    302.08479   -10175.306            0   -10118.413   -527.20143    32.817902     34.22419    33.184438    2.6147734    692.74923    1772.5505 
  663000    291.66818   -10174.279            0   -10119.349   -1416.3446    32.817902     34.22419    33.184438    2.2992642    694.02807    1771.4358 
  664000    295.70691    -10174.16            0   -10118.469    -1877.345    32.817902     34.22419    33.184438    3.1212675    695.38239    1770.5126 
  665000    291.94636   -10172.851            0   -10117.868    -701.6223    32.817902     34.22419    33.184438    2.5131239    696.65397    1769.3778 
  666000    290.83575   -10175.839            0   -10121.065   -1028.6367    32.817902     34.22419    33.184438    2.6296522    697.90626    1768.1936 
  667000    292.59254   -10174.097            0   -10118.992   -1532.1667    32.817902     34.22419    33.184438    2.9620729    699.19165    1767.0928 
  668000    305.06715   -10175.012            0   -10117.558   -403.24052    32.817902     34.22419    33.184438    2.4544757    700.39626    1765.7878 
  669000    296.51947   -10176.746            0   -10120.902   -1241.5273    32.817902     34.22419    33.184438    2.1760687    701.59157    1764.4596 
  670000    299.53654   -10173.095            0   -10116.683    -687.2646    32.817902     34.22419    33.184438    2.1599651    702.79934    1763.1633 
  671000    302.12881   -10175.241            0    -10118.34    -983.3417    32.817902     34.22419    33.184438    2.7736222    704.01446    1761.8856 
  672000     305.1737   -10177.236            0   -10119.762   -1102.4575    32.817902     34.22419    33.184438    2.4913106    705.21413    1760.5695 
  673000    300.41585   -10171.983            0   -10115.405   -1597.7546    32.817902     34.22419    33.184438    2.6598554    706.38215    1759.1751 
  674000    306.01916   -10174.136            0   -10116.502   -1122.7753    32.817902     34.22419    33.184438    2.4093337    707.58764    1757.8745 
  675000    300.95057   -10175.453            0   -10118.774   -1661.2292    32.817902     34.22419    33.184438    2.3712861    708.80396    1756.6011 
  676000    295.04879    -10174.68            0   -10119.113   -561.77358    32.817902     34.22419    33.184438    2.0377747    710.01879    1755.3242 
  677000    301.75615   -10173.787            0   -10116.956   -1138.5537    32.817902     34.22419    33.184438    2.4544107    711.21637     1754.005 
  678000    293.05935   -10173.044            0   -10117.851   -2097.3844    32.817902     34.22419    33.184438    2.0008425    712.43225    1752.7312 
  679000    288.58271   -10174.697            0   -10120.347   -1485.6732    32.817902     34.22419    33.184438    2.2824389    713.64747    1751.4561 
  680000    304.26397   -10174.025            0   -10116.722   -2330.3899    32.817902     34.22419    33.184438    2.4561127     714.8938    1750.2572 
  681000    305.33517   -10175.967            0   -10118.462   -2311.2837    32.817902     34.22419    33.184438    2.6444373     716.1111    1748.9873 
  682000    289.40414    -10174.85            0   -10120.346   -949.41946    32.817902     34.22419    33.184438    2.0862189    717.28773    1747.6186 
  683000    305.15864   -10173.644            0   -10116.173   -1804.8899    32.817902     34.22419    33.184438    2.4059713    718.52557    1746.3992 
  684000    298.73733   -10174.772            0    -10118.51   -104.01481    32.817902     34.22419    33.184438    2.3982875    719.71986    1745.0742 
  685000    295.60851   -10175.223            0   -10119.551    42.426104    32.817902     34.22419    33.184438    2.6955555    720.95127    1743.8394 
  686000    304.64631   -10175.086            0   -10117.712   -1408.6477    32.817902     34.22419    33.184438    2.2616356    722.10867     1742.426 
  687000    312.13248   -10172.737            0   -10113.953   -1777.4817    32.817902     34.22419    33.184438    2.2315557    723.30377    1741.1043 
  688000     292.2998   -10173.342            0   -10118.293   -1723.8146    32.817902     34.22419    33.184438    2.3184769    724.48978    1739.7612 
  689000    293.77549    -10173.96            0   -10118.633   -1457.6072    32.817902     34.22419    33.184438    2.3552911    725.70475     1738.488 
  690000    304.06223   -10172.221            0   -10114.957   -366.69931    32.817902     34.22419    33.184438    2.1904836     726.9663    1737.3262 
  691000    292.70464    -10174.78            0   -10119.654   -1233.6999    32.817902     34.22419    33.184438     2.380634    728.25028    1736.2177 
  692000    297.35424   -10173.402            0   -10117.401   -797.40151    32.817902     34.22419    33.184438    2.7452492    729.48348    1734.9877 
  693000    295.74446   -10172.628            0    -10116.93   -887.41768    32.817902     34.22419    33.184438    2.6788522    730.77717    1733.9013 
  694000    295.90872   -10176.455            0   -10120.726   -1161.5736    32.817902     34.22419    33.184438    2.9243882    732.04782    1732.7596 
  695000    296.52048   -10172.963            0   -10117.118   -1248.8983    32.817902     34.22419    33.184438    2.3101259    733.29629    1731.5652 
  696000    304.01532   -10175.289            0   -10118.033   -1351.2741    32.817902     34.22419    33.184438    2.1489413    734.52998    1730.3357 
  697000    299.27212   -10174.999            0   -10118.636    -633.4039    32.817902     34.22419    33.184438    2.2732668    735.85315    1729.3165 
  698000    295.64263   -10173.917            0   -10118.238   -326.98072    32.817902     34.22419    33.184438    2.6047622    737.10936    1728.1393 
  699000    303.99333   -10174.317            0   -10117.065   -2239.6177    32.817902     34.22419    33.184438    2.1953261    738.36858    1726.9689 
  700000    294.39503   -10175.683            0   -10120.239    -481.5892    32.817902     34.22419    33.184438    2.6723605    739.62892    1725.8008 
  701000    303.80012   -10176.093            0   -10118.878   -1223.4605    32.817902     34.22419    33.184438    2.6201942    740.82671    1724.4868 
  702000    309.03488   -10175.013            0   -10116.812   -924.65746    32.817902     34.22419    33.184438    2.1888839    742.06207    1723.2604 
  703000    284.94564   -10173.372            0   -10119.707   -389.00324    32.817902     34.22419    33.184438     2.281606    743.25783    1721.9423 
  704000    303.65841   -10175.123            0   -10117.934   -999.22735    32.817902     34.22419    33.184438    2.4253636     744.4658    1720.6527 
  705000    304.70809   -10174.106            0   -10116.719   -235.24759    32.817902     34.22419    33.184438    2.5558159    745.70234    1719.4294 
  706000    291.66692   -10174.718            0   -10119.788   -920.20892    32.817902     34.22419    33.184438    2.5964489     746.8757    1718.0606 
  707000    295.52271   -10174.268            0   -10118.612   -681.82308    32.817902     34.22419    33.184438    2.7036344    748.08313    1716.7707 
  708000    311.60604   -10173.604            0   -10114.918    86.248647    32.817902     34.22419    33.184438    2.2189729    749.33995    1715.5941 
  709000    305.93709   -10176.127            0   -10118.509    -421.7805    32.817902     34.22419    33.184438    2.3968952    750.51584    1714.2324 
  710000    303.31336   -10176.925            0   -10119.801   -1063.0513    32.817902     34.22419    33.184438    2.3481013    751.71046     1712.914 
  711000    290.18699   -10174.132            0    -10119.48   -1084.6067    32.817902     34.22419    33.184438     2.275159    752.92394    1711.6389 
  712000    307.00758   -10174.293            0   -10116.473   -590.93192    32.817902     34.22419    33.184438    2.8287984    754.17243    1710.4434 
  713000    298.29232   -10177.118            0    -10120.94    -1223.242    32.817902     34.22419    33.184438    2.4428872    755.33591    1709.0553 
  714000    301.65394   -10175.894            0   -10119.083   -1171.0044    32.817902     34.22419    33.184438    2.3044072    756.54239    1707.7651 
  715000    299.15305    -10174.13            0   -10117.789    -1715.804    32.817902     34.22419    33.184438    1.9933396    757.74104    1706.4575 
  716000    297.83762   -10174.419            0   -10118.326   -663.34715    32.817902     34.22419    33.184438    2.3742313     759.0001    1705.2859 
  717000    304.59444   -10175.363            0   -10117.998   -1237.8859    32.817902     34.22419    33.184438    2.5344916    760.16662    1703.9067 
  718000    309.55324   -10172.964            0   -10114.665   -571.71684    32.817902     34.22419    33.184438    2.9777269    761.38163    1702.6366 
  719000    297.50839   -10174.936            0   -10118.906   -46.428941    32.817902     34.22419    33.184438    2.1836758    762.57865    1701.3265 
  720000    304.52118   -10175.958            0   -10118.607   -1478.5216    32.817902     34.22419    33.184438    2.4880323    763.73694    1699.9306 
  721000    310.60753   -10173.614            0   -10115.117   -831.32676    32.817902     34.22419    33.184438    2.2986933    764.96586    1698.6923 
  722000    303.19146   -10176.098            0   -10118.998   -2022.4382    32.817902     34.22419    33.184438    2.0110722    766.23229    1697.5371 
  723000    300.74786   -10174.914            0   -10118.273   -1175.6111    32.817902     34.22419    33.184438    2.5772832    767.48826    1696.3585 
  724000    301.38922   -10172.148            0   -10115.386   -1154.9416    32.817902     34.22419    33.184438    2.0530771    768.75114    1695.1948 
  725000    292.69933    -10175.26            0   -10120.136   -567.90864    32.817902     34.22419    33.184438    2.1154889    770.04376    1694.0963 
  726000    300.08195   -10173.791            0   -10117.276   -1256.2864    32.817902     34.22419    33.184438    2.6775229    771.34678    1693.0199 
  727000    293.52697   -10172.592            0   -10117.311   -1456.4052    32.817902     34.22419    33.184438    2.2256547     772.5525    1691.7298 
  728000    292.00275   -10174.838            0   -10119.845   -1054.9635    32.817902     34.22419    33.184438    2.2834549    773.82803    1690.5925 
  729000    307.26386   -10175.426            0   -10117.559   -619.76033    32.817902     34.22419    33.184438    2.1827505    775.08501    1689.4142 
  730000    295.62021   -10173.295            0    -10117.62   -578.39226    32.817902     34.22419    33.184438    2.4003924    776.38483    1688.3289 
  731000    300.07022   -10177.203            0    -10120.69   -1288.1238    32.817902     34.22419    33.184438    2.4781821    777.62938     1687.123 
  732000    300.63999   -10174.469            0   -10117.849   -1694.1417    32.817902     34.22419    33.184438    2.5295336    778.91522    1686.0064 
  733000    305.69218    -10175.38            0   -10117.808    -759.7021    32.817902     34.22419    33.184438    2.8584723    780.15222    1684.7837 
  734000    293.50519   -10174.256            0    -10118.98   -561.25248    32.817902     34.22419    33.184438    2.7055175    781.34925    1683.4749 
  735000    289.60117   -10173.112            0   -10118.571   -1410.8602    32.817902     34.22419    33.184438    2.2475249    782.54598    1682.1658 
  736000    299.63989    -10173.58            0   -10117.149   -249.87382    32.817902     34.22419    33.184438    2.1056544    783.75195    1680.8768 
  737000    286.38828    -10174.19            0   -10120.253   -1496.0337    32.817902     34.22419    33.184438     3.069407    784.99503    1679.6675 
  738000    295.68011   -10173.401            0   -10117.715   -879.55847    32.817902     34.22419    33.184438    2.1895031      786.185    1678.3448 
  739000    303.74774   -10174.265            0    -10117.06   -1397.5801    32.817902     34.22419    33.184438     2.532774    787.38122    1677.0357 
  740000     292.6051   -10175.419            0   -10120.312   -618.49859    32.817902     34.22419    33.184438     2.622551    788.59841    1675.7716 
  741000    303.37903   -10173.884            0   -10116.748   -769.81909    32.817902     34.22419    33.184438    2.2695015     789.7951    1674.4642 
  742000    303.04901   -10174.664            0    -10117.59   -1898.2631    32.817902     34.22419    33.184438    2.1562921    791.02864     1673.235 
  743000    296.52522   -10176.356            0    -10120.51   -1811.9327    32.817902     34.22419    33.184438    3.1537409    792.22272    1671.9226 
  744000    306.84476   -10174.781            0   -10116.992   -1073.5682    32.817902     34.22419    33.184438    2.8339842    793.44316     1670.666 
  745000    299.58991    -10173.69            0   -10117.268   -1570.0324    32.817902     34.22419    33.184438    2.2472147    794.63238     1669.344 
  746000    304.68371   -10176.313            0   -10118.931   -615.31864    32.817902     34.22419    33.184438    3.0273944    795.87153     1668.127 
  747000    296.13874   -10175.668            0   -10119.895   -1660.0661    32.817902     34.22419    33.184438    2.1791058    797.02846     1666.738 
  748000    292.43523   -10176.544            0   -10121.469   -1833.9456    32.817902     34.22419    33.184438    2.4601695     798.2761     1665.539 
  749000    302.35839   -10174.575            0   -10117.631   -744.12978    32.817902     34.22419    33.184438    2.5164998    799.54936    1664.3932 
  750000    301.88229   -10176.518            0   -10119.664   -1172.3778    32.817902     34.22419    33.184438    2.1723527    800.75114    1663.0985 
  751000    290.46969    -10178.67            0   -10123.965   -943.52812    32.817902     34.22419    33.184438    2.2272925    801.96105     1661.821 
  752000    305.65889   -10176.078            0   -10118.513   -955.64606    32.817902     34.22419    33.184438    2.4840763    803.16923    1660.5401 
  753000    300.62277   -10175.183            0   -10118.566    20.556767    32.817902     34.22419    33.184438    2.1341278    804.38954    1659.2844 
  754000    291.35935   -10176.057            0   -10121.184   -1037.0535    32.817902     34.22419    33.184438    2.3613072    805.63079    1658.0719 
  755000    303.97079    -10174.82            0   -10117.572   -719.20836    32.817902     34.22419    33.184438    2.5054545    806.92768    1656.9736 
  756000    305.64828    -10175.87            0   -10118.307   -1463.8484    32.817902     34.22419    33.184438    2.0331069    808.20607    1655.8368 
  757000    298.58707   -10176.663            0   -10120.429    -1242.998    32.817902     34.22419    33.184438    2.2957517    809.46582    1654.6615 
  758000    297.23442   -10174.981            0   -10119.002   -1387.8581    32.817902     34.22419    33.184438    2.6782748    810.74714    1653.5299 
  759000    314.87475   -10174.122            0   -10114.821   -513.80963    32.817902     34.22419    33.184438    2.5362247    812.03656    1652.4143 
  760000    305.07152   -10175.955            0     -10118.5   -1126.9338    32.817902     34.22419    33.184438    2.4724476    813.29736    1651.2401 
  761000    288.88073   -10175.003            0   -10120.598   -2124.6462    32.817902     34.22419    33.184438    2.0591136    814.57396    1650.0976 
  762000    305.85869   -10176.147            0   -10118.544   -585.22245    32.817902     34.22419    33.184438    1.9087515    815.85735    1648.9685 
  763000    304.98701   -10174.115            0   -10116.677   -1434.0875    32.817902     34.22419    33.184438    2.2189234    817.14236    1647.8421 
  764000    295.39952   -10176.267            0   -10120.634   -966.30127    32.817902     34.22419    33.184438     2.718361    818.40766    1646.6757 
  765000    310.74488   -10176.858            0   -10118.335   -1693.6421    32.817902     34.22419    33.184438    2.2565293    819.67794    1645.5189 
  766000    305.93594   -10173.506            0   -10115.889    -1038.769    32.817902     34.22419    33.184438    2.4507382    820.88608    1644.2373 
  767000    299.05704   -10176.585            0   -10120.263   -1687.7604    32.817902     34.22419    33.184438    2.2634477    822.09494    1642.9574 
  768000    286.09661   -10173.546            0   -10119.664   -944.99644    32.817902     34.22419    33.184438    2.3662153    823.30867    1641.6874 
  769000    305.18799   -10174.647            0    -10117.17   -1205.3449    32.817902     34.22419    33.184438    2.3858749    824.50997    1640.3928 
  770000    301.79438   -10176.088            0   -10119.251   -1518.5461    32.817902     34.22419    33.184438    2.2740352    825.72816     1639.132 
  771000    293.18061   -10174.989            0   -10119.773   -1120.3495    32.817902     34.22419    33.184438    2.9859933    826.91916    1637.8175 
  772000    302.93733   -10176.498            0   -10119.446   -1693.6056    32.817902     34.22419    33.184438    2.5805529     828.1474     1636.577 
  773000    293.87929     -10174.5            0   -10119.153   -1845.9734    32.817902     34.22419    33.184438    2.3026218    829.33466    1635.2557 
  774000     296.5676   -10175.051            0   -10119.198   -1437.1456    32.817902     34.22419    33.184438    2.4087715     830.5535     1633.997 
  775000    294.18383   -10175.177            0   -10119.773   -927.13487    32.817902     34.22419    33.184438    2.2320188    831.75951    1632.7131 
  776000    303.73121   -10174.201            0   -10116.999   -1595.2506    32.817902     34.22419    33.184438    2.4247538    832.99528    1631.4878 
  777000    297.99467   -10175.599            0   -10119.477   -1246.9498    32.817902     34.22419    33.184438    2.6288154    834.15119    1630.1064 
  778000    299.82296   -10176.953            0   -10120.486   -1507.4371    32.817902     34.22419    33.184438    2.0911263    835.35276    1628.8147 
  779000    307.30277   -10174.896            0   -10117.022   -622.93632    32.817902     34.22419    33.184438     2.359848    836.50861    1627.4343 
  780000    295.45803   -10177.517            0   -10121.873   -918.31524    32.817902     34.22419    33.184438    2.3184799    837.73904    1626.1993 
  781000    295.56466   -10174.982            0   -10119.318   -1294.2848    32.817902     34.22419    33.184438    2.2706723    838.92529    1624.8788 
  782000    306.83675   -10175.726            0   -10117.938   -1357.6903    32.817902     34.22419    33.184438    2.1864253    840.12317    1623.5811 
  783000    290.59528   -10176.677            0   -10121.949   -297.29923    32.817902     34.22419    33.184438    2.6134833    841.31221    1622.2667 
  784000    296.83974   -10175.976            0   -10120.072    -1286.634    32.817902     34.22419    33.184438    2.3192223    842.51836    1620.9856 
  785000    301.37596   -10175.317            0   -10118.558   -1917.1485    32.817902     34.22419    33.184438    2.3297762     843.6958    1619.6496 
  786000    319.98042   -10174.354            0   -10114.092   -723.76329    32.817902     34.22419    33.184438    2.3879601    844.89172    1618.3494 
  787000    296.71053   -10174.472            0   -10118.591    -1577.058    32.817902     34.22419    33.184438    2.4107827     846.1109     1617.094 
  788000    290.93714   -10174.541            0   -10119.748   -605.32349    32.817902     34.22419    33.184438    2.4942015    847.34135    1615.8602 
  789000    297.28964   -10175.185            0   -10119.196     171.6866    32.817902     34.22419    33.184438    2.3628449    848.57945     1614.641 
  790000    305.66764   -10174.515            0   -10116.948   -1385.2345    32.817902     34.22419    33.184438    2.6269121    849.85104    1613.4853 
  791000    295.73402   -10176.404            0   -10120.708   -1678.7444    32.817902     34.22419    33.184438    2.4340576    851.12913    1612.3416 
  792000    299.68319   -10176.624            0   -10120.184   -1760.2369    32.817902     34.22419    33.184438    2.1010852    852.40403    1611.1914 
  793000    308.94784   -10174.348            0   -10116.163    -1173.871    32.817902     34.22419    33.184438    2.8137007    853.65685    1609.9993 
  794000    292.91357    -10175.52            0   -10120.355   -741.98844    32.817902     34.22419    33.184438    2.7175839    854.90235    1608.7932 
  795000    296.44307   -10176.511            0   -10120.681   -1533.7021    32.817902     34.22419    33.184438    2.2533463    856.17155    1607.6315 
  796000    299.84262   -10173.704            0   -10117.234   -2017.5354    32.817902     34.22419    33.184438    2.1233384    857.47219    1606.5284 
  797000    295.13865   -10176.923            0   -10121.339   -665.02138    32.817902     34.22419    33.184438    1.9490081    858.81508    1605.5037 
  798000    295.17547   -10175.739            0   -10120.148   -643.44079    32.817902     34.22419    33.184438    2.6375667    860.12394    1604.4146 
  799000    301.73562   -10174.157            0   -10117.331   -781.61512    32.817902     34.22419    33.184438    2.1773994    861.29026    1603.0596 
  800000    289.75241    -10176.13            0    -10121.56   -1453.7774    32.817902     34.22419    33.184438    2.3036089    862.52732    1601.8365 
  801000    300.44039   -10176.175            0   -10119.593   -963.37861    32.817902     34.22419    33.184438    2.3480919    863.77227    1600.6279 
  802000    309.40676   -10176.656            0   -10118.385   -1403.2864    32.817902     34.22419    33.184438    1.9943687    864.95721    1599.3084 
  803000     303.1403   -10176.154            0   -10119.063   -541.60924    32.817902     34.22419    33.184438    2.6078054    866.20998    1598.1143 
  804000    294.34802   -10175.409            0   -10119.974   -589.49161    32.817902     34.22419    33.184438    2.5759297    867.43525    1596.8694 
  805000    297.39149   -10176.498            0   -10120.489    -1299.278    32.817902     34.22419    33.184438    2.3682753     868.6723    1595.6463 
  806000    309.98806   -10175.718            0   -10117.337   -85.722188    32.817902     34.22419    33.184438    2.3060174     869.8872    1594.3825 
  807000    292.80817   -10176.575            0    -10121.43   -1012.7877    32.817902     34.22419    33.184438    2.3589299    871.09463    1593.1052 
  808000    295.15195   -10176.092            0   -10120.506   -874.25725    32.817902     34.22419    33.184438    3.0862124     872.2691    1591.7679 
  809000     300.2473   -10175.038            0   -10118.492   -1212.3084    32.817902     34.22419    33.184438    2.9673769    873.48104    1590.4993 
  810000    303.39399   -10176.396            0   -10119.257    -886.7957    32.817902     34.22419    33.184438    2.4835003    874.67651     1589.201 
  811000    301.19212   -10177.068            0   -10120.343   -1397.1255    32.817902     34.22419    33.184438    2.2327324    875.88523     1587.927 
  812000    302.39275   -10175.222            0   -10118.272   -1149.6254    32.817902     34.22419    33.184438    2.2799849      877.047    1586.5682 
  813000    306.32608   -10176.654            0   -10118.963    -1754.951    32.817902     34.22419    33.184438    2.5202047    878.23442    1585.2562 
  814000    301.52972   -10178.177            0   -10121.389   -1100.5128    32.817902     34.22419    33.184438    2.5244325    879.47067    1584.0326 
  815000    289.01377   -10173.458            0   -10119.027    38.272534    32.817902     34.22419    33.184438    3.0577226    880.64844    1582.7038 
  816000    297.17967   -10174.857            0   -10118.889   -400.79208    32.817902     34.22419    33.184438    2.1619185    881.84091    1581.4019 
  817000    298.78379   -10176.558            0   -10120.287   -526.88974    32.817902     34.22419    33.184438    2.4934819    883.03411    1580.1015 
  818000    293.61236   -10175.989            0   -10120.692   -1004.9996    32.817902     34.22419    33.184438    2.2145397    884.24914    1578.8404 
  819000    313.91457   -10176.172            0   -10117.052    -815.2829    32.817902     34.22419    33.184438    2.3541064    885.50744    1577.6565 
  820000    296.90764   -10176.893            0   -10120.975   -674.86674    32.817902     34.22419    33.184438    2.0206046    886.74055    1576.4277 
  821000    313.89473   -10179.644            0   -10120.528   -1332.3968    32.817902     34.22419    33.184438    2.1819851    887.96262    1575.1792 
  822000    302.42797   -10174.776            0   -10117.819    -1091.683    32.817902     34.22419    33.184438    2.1817889    889.25304    1574.0518 
  823000    296.86393   -10176.476            0   -10120.567   -1830.1804    32.817902     34.22419    33.184438    2.5311104    890.52383    1572.8893 
  824000    304.81307   -10178.534            0   -10121.128   -318.74983    32.817902     34.22419    33.184438    2.2706368    891.77876    1571.6985 
  825000     301.5001   -10174.656            0   -10117.873   -1555.2359    32.817902     34.22419    33.184438    2.3599506    893.02932    1570.4998 
  826000    295.67001   -10176.942            0   -10121.258   -1036.1418    32.817902     34.22419    33.184438    2.3845366    894.31508    1569.3628 
  827000    300.28249    -10178.15            0   -10121.597   -238.59798    32.817902     34.22419    33.184438    2.1936219    895.62606    1568.2696 
  828000    299.88373   -10174.975            0   -10118.497   -867.48304    32.817902     34.22419    33.184438    2.5754505    896.93872    1567.1787 
  829000    297.80973   -10177.095            0   -10121.008   -91.970806    32.817902     34.22419    33.184438    2.2054198    898.22586    1566.0426 
  830000    298.89388    -10177.93            0   -10121.639   -631.28393    32.817902     34.22419    33.184438    2.3123336     899.5047    1564.8917 
  831000    289.70406    -10173.73            0    -10119.17   -469.54787    32.817902     34.22419    33.184438    2.0975881    900.75161    1563.6851 
  832000    297.11191   -10176.755            0     -10120.8   -2103.6876    32.817902     34.22419    33.184438    2.5603208    901.95476    1562.4025 
  833000    295.23117   -10178.328            0   -10122.726   -1601.5428    32.817902     34.22419    33.184438    2.3950061    903.12015    1561.0549 
  834000    304.72341   -10176.933            0   -10119.544    -1110.545    32.817902     34.22419    33.184438    2.5277761    904.31056    1559.7509 
  835000    293.69097   -10175.065            0   -10119.753   -1460.9245    32.817902     34.22419    33.184438    2.3178511    905.54717    1558.5268 
  836000    291.68127   -10178.104            0   -10123.171   -1000.2007    32.817902     34.22419    33.184438    2.6030955    906.72353    1557.1991 
  837000    295.85084   -10174.592            0   -10118.873   -831.60308    32.817902     34.22419    33.184438    2.3005055    907.87994    1555.8377 
  838000     296.7817   -10175.832            0   -10119.939   -1656.5802    32.817902     34.22419    33.184438     1.977286    909.10073    1554.5869 
  839000    301.43166   -10179.421            0   -10122.652   -1681.7778    32.817902     34.22419    33.184438    2.7968285    910.37397    1553.4257 
  840000    295.35807   -10174.166            0    -10118.54   -2063.4816    32.817902     34.22419    33.184438    2.5282937    911.56893    1552.1309 
  841000    304.54287   -10176.137            0   -10118.782   -1172.7528    32.817902     34.22419    33.184438    2.2189189    912.76061    1550.8308 
  842000    301.34281   -10178.482            0   -10121.729   -530.70446    32.817902     34.22419    33.184438    2.5022311    913.91503    1549.4678 
  843000    295.41127   -10174.968            0   -10119.333   -436.79404    32.817902     34.22419    33.184438    2.4603946    915.11012    1548.1742 
  844000    294.69052   -10175.376            0   -10119.877   -754.64544    32.817902     34.22419    33.184438    2.8146725    916.29897    1546.8703 
  845000    295.83227   -10178.179            0   -10122.464    -905.5954    32.817902     34.22419    33.184438    3.0227052    917.51243    1545.6082 
  846000     298.8536   -10174.703            0   -10118.419    -625.8417    32.817902     34.22419    33.184438    2.7804249    918.70883    1544.3175 
  847000    295.56453   -10175.207            0   -10119.542   -1273.1235    32.817902     34.22419    33.184438    2.7176879     919.9523    1543.1061 
  848000    299.40194   -10178.031            0   -10121.644   -1282.3593    32.817902     34.22419    33.184438    2.0613526    921.17194    1541.8546 
  849000    300.02225    -10176.06            0   -10119.556   -1293.5944    32.817902     34.22419    33.184438    2.6584129     922.3771    1540.5791 
  850000    299.53324   -10175.429            0   -10119.018   -1038.0474    32.817902     34.22419    33.184438    2.1327299    923.56038    1539.2673 
  851000    289.69663   -10176.836            0   -10122.277   -46.356856    32.817902     34.22419    33.184438    2.1971397    924.81704    1538.0779 
  852000     310.7085    -10176.99            0   -10118.474    -727.7775    32.817902     34.22419    33.184438      2.20114    926.00292    1536.7708 
  853000    296.76316   -10174.503            0   -10118.613   -956.89188    32.817902     34.22419    33.184438    2.4552589    927.27099    1535.6002 
  854000    295.31116   -10176.623            0   -10121.007   -1712.2283    32.817902     34.22419    33.184438    2.3793131    928.53005    1534.4144 
  855000    301.46567   -10177.197            0   -10120.421   -923.81365    32.817902     34.22419    33.184438    2.7009273      929.828    1533.2925 
  856000    305.17399   -10174.557            0   -10117.083   -1123.7396    32.817902     34.22419    33.184438    2.5627444    931.18186    1532.2622 
  857000    292.20718   -10175.814            0   -10120.782    -370.5687    32.817902     34.22419    33.184438    2.4338811    932.46039    1531.1074 
  858000    290.87801   -10174.513            0   -10119.732   -1112.2076    32.817902     34.22419    33.184438    2.6703327    933.75941    1529.9857 
  859000    299.76471   -10175.275            0   -10118.819   -811.66028    32.817902     34.22419    33.184438    2.4073822    935.00388    1528.7745 
  860000    305.02728   -10176.943            0   -10119.497   -1630.3115    32.817902     34.22419    33.184438    2.2962071     936.2458    1527.5589 
  861000    292.67314   -10176.975            0   -10121.855   -1329.2763    32.817902     34.22419    33.184438    2.4377581    937.51081    1526.3809 
  862000    297.28128    -10174.56            0   -10118.572   -813.69935    32.817902     34.22419    33.184438    2.5221957    938.81445    1525.2655 
  863000     302.7779   -10175.608            0   -10118.585   -1082.6459    32.817902     34.22419    33.184438    2.4846323    940.13896    1524.1833 
  864000    292.99535   -10178.578            0   -10123.398   -1602.8324    32.817902     34.22419    33.184438    2.0778038    941.33781    1522.8973 
  865000     286.6028    -10174.75            0   -10120.773   -1923.3947    32.817902     34.22419    33.184438    2.2763891    942.50303    1521.5572 
  866000    304.26819   -10175.216            0   -10117.912   -1344.8655    32.817902     34.22419    33.184438     2.028679    943.73978    1520.3327 
  867000    292.15457   -10176.793            0   -10121.771   -1251.4967    32.817902     34.22419    33.184438    2.4916839    944.93702    1519.0448 
  868000          290    -10175.65            0   -10121.034   -559.27155    32.817902     34.22419    33.184438    2.2672065    946.12394    1517.7405 
  869000    301.27574   -10175.961            0   -10119.221   -524.74322    32.817902     34.22419    33.184438    2.2726778    947.31528    1516.4436 
  870000    309.36377   -10175.929            0   -10117.665   -805.21188    32.817902     34.22419    33.184438    2.3877284    948.53057    1515.1852 
  871000    292.56939   -10176.591            0   -10121.491   -1101.5898    32.817902     34.22419    33.184438    2.5651446    949.69753    1513.8499 
  872000    303.16166   -10175.758            0   -10118.663   -1266.4722    32.817902     34.22419    33.184438    1.9621198    950.88534    1512.5482 
  873000    307.52788   -10175.972            0   -10118.055   -1149.5779    32.817902     34.22419    33.184438    2.7370936    952.07417    1511.2484 
  874000    294.89279   -10176.183            0   -10120.645   -743.31854    32.817902     34.22419    33.184438    2.1712379    953.25242    1509.9321 
  875000    311.41145   -10176.834            0   -10118.185   -1041.9612    32.817902     34.22419    33.184438    2.2054548    954.44749    1508.6428 
  876000    299.05901    -10174.37            0   -10118.048   -1395.6823    32.817902     34.22419    33.184438    2.4922569    955.63062    1507.3349 
  877000    291.50666   -10175.976            0   -10121.076   -418.83322    32.817902     34.22419    33.184438    2.6093849    956.81594    1506.0308 
  878000    305.87551   -10176.586            0   -10118.979    -863.8076    32.817902     34.22419    33.184438    2.3404948    957.99196    1504.7123 
  879000    311.54933   -10173.301            0   -10114.626    36.089269    32.817902     34.22419    33.184438    2.4165943    959.19807    1503.4414 
  880000    309.54974   -10177.283            0   -10118.985   -682.24675    32.817902     34.22419    33.184438    2.2068656    960.40564    1502.1729 
  881000    301.10832   -10178.069            0    -10121.36   -455.44768    32.817902     34.22419    33.184438    2.1746555    961.61121    1500.9015 
  882000    306.72268   -10175.149            0   -10117.383   -773.66672    32.817902     34.22419    33.184438    2.1573661    962.77798    1499.5698 
  883000    305.88103   -10176.657            0    -10119.05   -572.54803    32.817902     34.22419    33.184438    2.5117719    963.98278    1498.2976 
  884000    291.16542   -10175.038            0   -10120.203    -348.2764    32.817902     34.22419    33.184438    2.6483571    965.17701    1497.0092 
  885000    300.22992   -10175.179            0   -10118.636    -852.2853    32.817902     34.22419    33.184438    2.4275251    966.36689    1495.7144 
  886000    303.51368   -10173.962            0   -10116.801   -593.80391    32.817902     34.22419    33.184438    2.2758146    967.63204     1494.536 
  887000    284.18637   -10173.849            0   -10120.327   -571.67023    32.817902     34.22419    33.184438    2.1620162    968.87351    1493.3209 
  888000    306.14231   -10176.286            0    -10118.63    -1124.266    32.817902     34.22419    33.184438    2.7091064    970.17375    1492.1962 
  889000    312.29108   -10174.804            0    -10115.99   -1753.8173    32.817902     34.22419    33.184438    2.8376397    971.45261    1491.0382 
  890000    296.34996   -10176.775            0   -10120.963   -1174.6122    32.817902     34.22419    33.184438    2.2618091    972.74864    1489.9061 
  891000    300.04651   -10175.094            0   -10118.586   -805.72693    32.817902     34.22419    33.184438    2.7160229    974.04935    1488.7809 
  892000    304.88279   -10176.274            0   -10118.855   -1735.4592    32.817902     34.22419    33.184438    2.4161487     975.3362     1487.634 
  893000    296.52943   -10177.759            0   -10121.913   -1006.7426    32.817902     34.22419    33.184438    2.2873171    976.61784    1486.4789 
  894000    307.87118    -10176.25            0   -10118.268    -945.2805    32.817902     34.22419    33.184438    1.9881566    977.94295    1485.3894 
  895000    298.61191   -10175.297            0   -10119.059   -1766.3644    32.817902     34.22419    33.184438    2.0210461    979.22977    1484.2414 
  896000    302.35637   -10177.802            0   -10120.858   -537.70108    32.817902     34.22419    33.184438    2.5958474    980.38549    1482.8946 
  897000    318.55063   -10176.771            0   -10116.778   -1055.0526    32.817902     34.22419    33.184438    2.2068287    981.57142     1481.594 
  898000    301.41617   -10176.355            0   -10119.589   -706.39339    32.817902     34.22419    33.184438    3.1599897    982.77736    1480.3238 
  899000     293.6991    -10176.49            0   -10121.177   -1606.9832    32.817902     34.22419    33.184438    2.6248218    983.99498    1479.0713 
  900000    304.28261   -10174.061            0   -10116.755    -620.7341    32.817902     34.22419    33.184438    2.3592323    985.19258    1477.7889 
  901000    306.08426   -10176.267            0   -10118.621   -2110.2718    32.817902     34.22419    33.184438    2.3346668     986.4325      1476.57 
  902000    290.54609   -10176.019            0     -10121.3   -1163.8199    32.817902     34.22419    33.184438    2.2492249    987.57678    1475.2082 
  903000    308.83139   -10176.483            0    -10118.32   -34.204846    32.817902     34.22419    33.184438    2.2473095    988.73497    1473.8677 
  904000    309.51667    -10176.99            0   -10118.698   -826.95811    32.817902     34.22419    33.184438    2.2212713    989.92106    1472.5691 
  905000    304.05328    -10177.96            0   -10120.697   -927.27773    32.817902     34.22419    33.184438    3.1131505    991.11768    1471.2865 
  906000     300.1687   -10175.535            0   -10119.004   -1146.6166    32.817902     34.22419    33.184438    2.3779038    992.31501    1470.0051 
  907000    312.32096   -10173.944            0   -10115.124   -1796.0098    32.817902     34.22419    33.184438     2.326548    993.49081    1468.6921 
  908000    292.82206   -10174.748            0     -10119.6    35.368475    32.817902     34.22419    33.184438    2.4214048    994.67991    1467.3991 
  909000    290.07242   -10175.592            0   -10120.962   -1140.2194    32.817902     34.22419    33.184438    2.6397973    995.92868    1466.1941 
  910000    312.21063    -10176.41            0   -10117.611   -1828.7013    32.817902     34.22419    33.184438     2.455084    997.10373    1464.8808 
  911000    308.44342    -10177.62            0    -10119.53   -395.41609    32.817902     34.22419    33.184438    2.0971458     998.3429    1463.6618 
  912000    298.19809    -10176.96            0     -10120.8   -696.64415    32.817902     34.22419    33.184438    2.3339543     999.5829     1462.444 
  913000    303.26438   -10175.224            0    -10118.11   -2070.8413    32.817902     34.22419    33.184438    3.0468923    1000.7601    1461.1344 
  914000    303.75275   -10176.876            0   -10119.669    79.211439    32.817902     34.22419    33.184438    2.4378562    1001.9557    1459.8519 
  915000    291.34553   -10176.241            0   -10121.371   -1559.1308    32.817902     34.22419    33.184438    2.7711842    1003.1661    1458.5912 
  916000    306.71686   -10175.212            0   -10117.447    -1370.271    32.817902     34.22419    33.184438    2.4413418    1004.3353    1457.2709 
  917000      297.641   -10175.079            0   -10119.024   -1245.5089    32.817902     34.22419    33.184438    2.2682573    1005.5947    1456.0814 
  918000    311.86102   -10179.046            0   -10120.313   -645.59475    32.817902     34.22419    33.184438    1.8419928    1006.8347    1454.8639 
  919000    297.46662   -10175.211            0   -10119.189   -336.29131    32.817902     34.22419    33.184438    2.4414476    1008.1073    1453.6931 
  920000    306.05351   -10174.976            0   -10117.336   -1557.6894    32.817902     34.22419    33.184438    2.4102741    1009.3831    1452.5269 
  921000    290.14537   -10175.836            0   -10121.192    -733.3852    32.817902     34.22419    33.184438    2.7988314    1010.6712     1451.378 
  922000    299.08219    -10175.74            0   -10119.414   -1522.9246    32.817902     34.22419    33.184438    2.8940395    1011.8998    1450.1436 
  923000    300.09048   -10175.463            0   -10118.947    -216.3469    32.817902     34.22419    33.184438    2.0334016    1013.1369    1448.9212 
  924000    289.29663   -10177.719            0   -10123.235   -1585.3765    32.817902     34.22419    33.184438    1.8275776    1014.3873    1447.7177 
  925000     295.6753   -10176.893            0   -10121.208   -823.71582    32.817902     34.22419    33.184438    2.4345342    1015.6645    1446.5525 
  926000    302.07472   -10175.895            0   -10119.004   -2075.5184    32.817902     34.22419    33.184438    2.1822668    1016.9204    1445.3565 
  927000    303.73207   -10176.481            0   -10119.278    -1323.361    32.817902     34.22419    33.184438    2.6857661    1018.2125    1444.2119 
  928000    295.75404   -10177.293            0   -10121.593   -1891.2372    32.817902     34.22419    33.184438    2.6149765    1019.4415    1442.9775 
  929000    308.21989   -10175.455            0   -10117.407   -1726.9493    32.817902     34.22419    33.184438    2.2262138    1020.6478    1441.7112 
  930000    306.70581   -10176.812            0    -10119.05    -1521.466    32.817902     34.22419    33.184438    2.3351142    1021.8577    1440.4501 
  931000     309.4267   -10178.413            0   -10120.138   -238.53122    32.817902     34.22419    33.184438    2.5225789    1023.0611    1439.1798 
  932000    300.19579    -10175.92            0   -10119.384   -594.86552    32.817902     34.22419    33.184438     2.142747    1024.2796     1437.931 
  933000    312.53865   -10175.024            0   -10116.163   -1240.7697    32.817902     34.22419    33.184438    2.5830311    1025.4666    1436.6381 
  934000     304.6929   -10175.877            0   -10118.494   -815.43888    32.817902     34.22419    33.184438    2.4946695    1026.6515    1435.3425 
  935000    301.41991   -10176.574            0   -10119.807   -1134.2626    32.817902     34.22419    33.184438     2.668611     1027.846    1434.0606 
  936000    302.19992   -10173.979            0   -10117.065   -1690.2288    32.817902     34.22419    33.184438    2.7304469    1029.0627    1432.8098 
  937000    303.70257   -10174.351            0   -10117.154   -1002.1556    32.817902     34.22419    33.184438    2.3018249    1030.2596    1431.5315 
  938000    298.69584   -10177.011            0   -10120.757   -925.98767    32.817902     34.22419    33.184438    2.2244633    1031.4273     1430.213 
  939000    295.98144   -10173.484            0   -10117.741   -733.53268    32.817902     34.22419    33.184438    2.3423455    1032.6377    1428.9539 
  940000    303.84018   -10174.926            0   -10117.703   -1565.0558    32.817902     34.22419    33.184438    2.5046169    1033.9145    1427.7867 
  941000     285.0807   -10174.768            0   -10121.079    -1634.658    32.817902     34.22419    33.184438    2.7948201    1035.1216    1426.5231 
  942000    304.10206   -10175.293            0   -10118.021   -1218.3338    32.817902     34.22419    33.184438    2.4980834    1036.3076    1425.2306 
  943000    303.27122   -10176.653            0   -10119.537   -1117.1548    32.817902     34.22419    33.184438    2.1213567    1037.4752    1423.9132 
  944000    294.56514   -10177.091            0   -10121.615   -1547.5103    32.817902     34.22419    33.184438    2.4011121    1038.6658    1422.6275 
  945000    299.69236    -10174.93            0   -10118.488    -1904.986    32.817902     34.22419    33.184438    2.2394186    1039.8722    1421.3637 
  946000    302.11271   -10175.999            0   -10119.102   -590.02366    32.817902     34.22419    33.184438    2.3616681    1041.1193    1420.1557 
  947000     287.5699   -10177.743            0   -10123.585   -901.35459    32.817902     34.22419    33.184438    2.3350103    1042.3163    1418.8792 
  948000    295.40985   -10176.109            0   -10120.474   -1132.8251    32.817902     34.22419    33.184438    1.9815642    1043.5123    1417.6016 
  949000    304.24993   -10176.409            0   -10119.109   -1267.3684    32.817902     34.22419    33.184438    2.7190599    1044.7214     1416.342 
  950000    306.61178   -10175.605            0    -10117.86   -1801.9196    32.817902     34.22419    33.184438    2.3998008    1045.9532    1415.1131 
  951000    294.60806   -10175.748            0   -10120.264    613.65091    32.817902     34.22419    33.184438    2.6483761    1047.2404    1413.9592 
  952000    294.61505   -10176.616            0   -10121.131   -628.91046    32.817902     34.22419    33.184438     2.097656    1048.5511    1412.8365 
  953000    298.07308   -10173.309            0   -10117.172   -600.66541    32.817902     34.22419    33.184438       2.2812    1049.9015    1411.7668 
  954000    295.71594   -10175.968            0   -10120.275   -1529.8932    32.817902     34.22419    33.184438    2.6907873    1051.1811    1410.6014 
  955000    305.11823   -10177.491            0   -10120.027   -795.92488    32.817902     34.22419    33.184438    2.4892777    1052.4489    1409.4199 
  956000    309.16319   -10174.958            0   -10116.732   -554.70358    32.817902     34.22419    33.184438    2.4863106    1053.7427    1408.2729 
  957000    297.41834   -10176.554            0   -10120.541   -690.31441    32.817902     34.22419    33.184438    2.8840023    1055.0467    1407.1394 
  958000    300.73948   -10175.667            0   -10119.028   -947.91434    32.817902     34.22419    33.184438    2.5969231     1056.329    1405.9764 
  959000      310.024   -10175.696            0   -10117.308   -582.98776    32.817902     34.22419    33.184438    2.4524792    1057.6038    1404.8032 
  960000    294.48114   -10176.039            0   -10120.579   -1018.7986    32.817902     34.22419    33.184438    2.9435611    1058.8478     1403.589 
  961000    306.35442   -10177.607            0   -10119.911   -1297.1815    32.817902     34.22419    33.184438    2.1876812     1060.115    1402.4053 
  962000    306.90549   -10175.043            0   -10117.243   -2324.0814    32.817902     34.22419    33.184438    2.5607039    1061.3239    1401.1446 
  963000    300.07585   -10177.053            0   -10120.539   -881.14428    32.817902     34.22419    33.184438    2.1519672    1062.5727    1399.9365 
  964000    300.04885   -10176.394            0   -10119.886   -903.42627    32.817902     34.22419    33.184438    2.6179963    1063.8095    1398.7125 
  965000    306.82552   -10173.832            0   -10116.047   -852.27643    32.817902     34.22419    33.184438    2.0623058    1064.9658    1397.3829 
  966000    300.36955   -10175.857            0   -10119.287   -1821.2553    32.817902     34.22419    33.184438    2.0983928    1066.1547    1396.0963 
  967000     294.8539   -10176.286            0   -10120.756   -955.22082    32.817902     34.22419    33.184438    2.5282941    1067.3577    1394.8285 
  968000    305.52551   -10174.239            0   -10116.699   -622.62614    32.817902     34.22419    33.184438    2.4199129    1068.5293    1393.5198 
  969000    302.94072   -10176.352            0   -10119.299   -979.50372    32.817902     34.22419    33.184438    2.2920772    1069.7443    1392.2678 
  970000    301.66463   -10177.068            0   -10120.255   -987.19796    32.817902     34.22419    33.184438    2.4986976    1070.9639    1391.0221 
  971000    298.87622    -10173.54            0   -10117.252   -2318.5715    32.817902     34.22419    33.184438    1.9394649    1072.1712    1389.7604 
  972000    307.92135   -10176.147            0   -10118.156   -1374.3798    32.817902     34.22419    33.184438    2.4631958    1073.3838    1388.5057 
  973000     293.6681   -10176.044            0   -10120.737   -946.41828    32.817902     34.22419    33.184438    2.5755722    1074.5725    1387.2201 
  974000    308.98123   -10175.929            0   -10117.738    -1496.003    32.817902     34.22419    33.184438    2.1865956    1075.8313    1386.0252 
  975000    307.38087   -10178.774            0   -10120.884   -1072.3694    32.817902     34.22419    33.184438    2.3744161    1077.0196    1384.7395 
  976000    287.22826   -10175.141            0   -10121.047   -1415.0281    32.817902     34.22419    33.184438    2.7806216     1078.279    1383.5452 
  977000    303.48553   -10175.383            0   -10118.227   -830.29288    32.817902     34.22419    33.184438    2.2468955    1079.4953    1382.2956 
  978000    296.03753   -10178.556            0   -10122.802   -883.58842    32.817902     34.22419    33.184438    2.0014486    1080.6434    1380.9589 
  979000    300.25914   -10177.484            0   -10120.935   -1005.3213    32.817902     34.22419    33.184438    2.2240785     1081.888    1379.7457 
  980000    303.35467   -10175.842            0    -10118.71   -606.52624    32.817902     34.22419    33.184438    2.8132039    1083.1048     1378.497 
  981000     288.6509   -10177.545            0   -10123.183   -1417.9945    32.817902     34.22419    33.184438    2.4981301    1084.2602    1377.1705 
  982000    297.27175    -10177.38            0   -10121.394   -1513.4679    32.817902     34.22419    33.184438       2.4724    1085.4678    1375.9104 
  983000    297.24221   -10175.592            0   -10119.612   -1337.8524    32.817902     34.22419    33.184438    2.8544579    1086.7276    1374.7165 
  984000     307.5793    -10176.62            0   -10118.693   -1097.4205    32.817902     34.22419    33.184438    2.5181709    1088.0553    1373.6083 
  985000    294.24928   -10175.575            0   -10120.158   -195.03015    32.817902     34.22419    33.184438    2.0207853    1089.3051    1372.4013 
  986000    307.05801   -10179.415            0   -10121.586   -1071.5523    32.817902     34.22419    33.184438    2.0590521    1090.6103    1371.2639 
  987000    298.47483   -10173.592            0    -10117.38   -1936.8817    32.817902     34.22419    33.184438    2.2076855    1091.8587     1370.055 
  988000    293.98237   -10175.467            0   -10120.101    -990.7469    32.817902     34.22419    33.184438    2.7091426    1093.1201     1368.862 
  989000     297.6689   -10176.642            0   -10120.582   -1932.9307    32.817902     34.22419    33.184438    2.8257685    1094.4046     1367.698 
  990000     296.6533   -10175.541            0   -10119.672    51.838696    32.817902     34.22419    33.184438    2.2044599    1095.7354    1366.5914 
  991000    317.91413   -10177.029            0   -10117.155   -1390.5317    32.817902     34.22419    33.184438    2.5049004    1097.0325    1365.4423 
  992000    305.16503   -10176.735            0   -10119.263   -1716.7686    32.817902     34.22419    33.184438    1.9505059     1098.326    1364.2883 
  993000    296.55167   -10176.803            0   -10120.953   -1875.9565    32.817902     34.22419    33.184438    1.7635377    1099.5646    1363.0661 
  994000    311.45401   -10175.986            0   -10117.329   -1502.5333    32.817902     34.22419    33.184438    2.2455279    1100.7625    1361.7934 
  995000    290.49641   -10176.854            0   -10122.145   -1377.1312    32.817902     34.22419    33.184438    2.0167872    1101.9911    1360.5589 
  996000    298.22871   -10176.403            0   -10120.237   -1788.8561    32.817902     34.22419    33.184438    2.1871892    1103.1588    1359.2492 
  997000    302.71795    -10175.44            0   -10118.429   -1937.0783    32.817902     34.22419    33.184438    2.6603841    1104.3769    1358.0019 
  998000       286.09   -10177.098            0   -10123.218   -943.53586    32.817902     34.22419    33.184438    2.2108129    1105.5839     1356.741 
  999000    299.31638   -10176.687            0   -10120.316   -622.39476    32.817902     34.22419    33.184438    2.2957971    1106.7813    1355.4685 
 1000000    304.51966   -10176.633            0   -10119.282   -265.44256    32.817902     34.22419    33.184438    2.6763226    1108.0483    1354.2813 
 1001000    294.60015   -10178.161            0   -10122.678    -1933.019    32.817902     34.22419    33.184438    1.9173872    1109.2456    1353.0088 
 1002000     295.9854   -10177.228            0   -10121.484   -847.83496    32.817902     34.22419    33.184438    2.5314208    1110.5023    1351.8087 
 1003000    307.07482   -10176.971            0   -10119.139   -1129.6567    32.817902     34.22419    33.184438    2.1431777    1111.7173     1350.558 
 1004000    296.19696   -10178.307            0   -10122.524   -1046.3306    32.817902     34.22419    33.184438    2.1754565    1112.9222     1349.295 
 1005000    291.96479   -10175.862            0   -10120.875   -262.74285    32.817902     34.22419    33.184438    2.3069759    1114.0877    1347.9845 
 1006000    304.47076   -10176.733            0   -10119.392   -1250.5449    32.817902     34.22419    33.184438    2.4872418    1115.3224     1346.758 
 1007000    287.93518   -10176.319            0   -10122.092   -1259.3492    32.817902     34.22419    33.184438    2.1878812    1116.5632    1345.5387 
 1008000     301.3525    -10175.26            0   -10118.506   -1743.4732    32.817902     34.22419    33.184438    2.6764123    1117.7305     1344.231 
 1009000    299.94889   -10175.846            0   -10119.356   -1289.2556    32.817902     34.22419    33.184438    2.1539593    1118.9488    1342.9847 
 1010000    296.06326   -10176.914            0   -10121.156   -1958.9867    32.817902     34.22419    33.184438    2.6724174    1120.1665    1341.7379 
 1011000    296.05843   -10175.854            0   -10120.097   -2214.4887    32.817902     34.22419    33.184438    2.2618132    1121.3769    1340.4823 
 1012000    299.59061   -10176.083            0    -10119.66   -1664.1741    32.817902     34.22419    33.184438    2.1553844    1122.5536    1339.1868 
 1013000    301.85636   -10177.234            0   -10120.385   -1137.4084    32.817902     34.22419    33.184438    2.2152241     1123.772    1337.9411 
 1014000     299.0381   -10177.509            0    -10121.19   -631.77284    32.817902     34.22419    33.184438    2.2899783    1124.9905    1336.6955 
 1015000    306.99585   -10175.077            0    -10117.26   -1282.8015    32.817902     34.22419    33.184438    2.8632131     1126.183    1335.4192 
 1016000    307.11851   -10177.898            0   -10120.057   -1210.7443    32.817902     34.22419    33.184438    2.2914129    1127.4627    1334.2463 
 1017000     292.3601   -10175.328            0   -10120.267   -1311.8878    32.817902     34.22419    33.184438    2.2173879    1128.7335    1333.0626 
 1018000    307.92416   -10176.216            0   -10118.224   -2310.3881    32.817902     34.22419    33.184438    2.4706307    1130.0065    1331.8813 
 1019000    294.14233   -10175.419            0   -10120.022   -714.27011    32.817902     34.22419    33.184438     2.306201    1131.2795    1330.6999 
 1020000    293.77157   -10176.647            0    -10121.32   -248.73584    32.817902     34.22419    33.184438    2.1741156    1132.4949    1329.4505 
 1021000    301.71682   -10174.449            0   -10117.626   -1394.6402    32.817902     34.22419    33.184438    2.4371903    1133.8041    1328.3112 
 1022000      296.428   -10175.859            0   -10120.032   -1548.4603    32.817902     34.22419    33.184438    2.5580194    1135.0874    1327.1413 
 1023000    292.98789   -10175.854            0   -10120.675   -1464.8157    32.817902     34.22419    33.184438    2.3820118      1136.38    1325.9819 
 1024000    310.70992   -10175.296            0   -10116.779   -1403.0075    32.817902     34.22419    33.184438    4.0896283    1137.6734    1324.8231 
 1025000     295.8893   -10176.315            0   -10120.589   -891.67781    32.817902     34.22419    33.184438    2.2685471    1138.9654    1323.6625 
 1026000    307.66489   -10177.714            0   -10119.771   -1611.3117    32.817902     34.22419    33.184438      2.02915    1140.1767     1322.408 
 1027000    320.45203   -10175.582            0   -10115.231    -2475.153    32.817902     34.22419    33.184438      2.23184     1141.368    1321.1304 
 1028000     300.1951   -10176.016            0    -10119.48   -611.73646    32.817902     34.22419    33.184438    2.8352699    1142.6357    1319.9413 
 1029000    297.41281   -10176.589            0   -10120.577   -659.42204    32.817902     34.22419    33.184438    2.4685926    1143.8163    1318.6515 
 1030000    301.87482   -10175.647            0   -10118.795     60.67294    32.817902     34.22419    33.184438    2.2614124    1145.0241    1317.3933 
 1031000    309.07545   -10176.144            0   -10117.935   -1876.0386    32.817902     34.22419    33.184438    2.6971693    1146.2523    1316.1587 
 1032000    301.54667   -10178.218            0   -10121.427    -1417.522    32.817902     34.22419    33.184438    2.0566704    1147.4403     1314.878 
 1033000    299.14055       -10175            0   -10118.663   -1257.2478    32.817902     34.22419    33.184438    2.8755382    1148.6382    1313.6087 
 1034000    303.76441   -10174.105            0   -10116.896   -1302.4098    32.817902     34.22419    33.184438    2.3775591    1149.8351    1312.3386 
 1035000    296.35408   -10176.682            0   -10120.869   -1346.1265    32.817902     34.22419    33.184438     2.120722    1151.0347    1311.0716 
 1036000    302.05948   -10177.016            0   -10120.129   -1643.8435    32.817902     34.22419    33.184438    2.6463986    1152.2514    1309.8242 
 1037000    303.50066   -10174.398            0   -10117.239   -1356.9748    32.817902     34.22419    33.184438     1.982455    1153.4771    1308.5872 
 1038000    302.98905   -10176.576            0   -10119.513   -1765.1929    32.817902     34.22419    33.184438    2.5655464    1154.6853    1307.3303 
 1039000    292.61572   -10176.077            0   -10120.968   -1352.6486    32.817902     34.22419    33.184438    2.1613478     1155.895    1306.0751 
 1040000      312.028   -10177.296            0   -10118.531   -1364.1565    32.817902     34.22419    33.184438    2.1911381    1157.1412    1304.8614 
 1041000     295.8571   -10174.767            0   -10119.047   -1642.1117    32.817902     34.22419    33.184438    2.4083426    1158.3379    1303.5918 
 1042000    297.15523   -10177.469            0   -10121.505   -1974.7594    32.817902     34.22419    33.184438    2.1214055    1159.5524    1302.3423 
 1043000    309.86886   -10177.986            0   -10119.627   -1427.5758    32.817902     34.22419    33.184438    1.9490797    1160.7736    1301.1005 
 1044000    302.96383   -10176.043            0   -10118.986   -900.38424    32.817902     34.22419    33.184438     2.219419    1161.9729    1299.8341 
 1045000    296.72338   -10174.793            0    -10118.91   -1875.5119    32.817902     34.22419    33.184438    2.1634305    1163.2182    1298.6193 
 1046000    299.42406    -10177.55            0   -10121.158   -413.39681    32.817902     34.22419    33.184438    2.4910028    1164.4249    1297.3614 
 1047000    293.75648   -10176.659            0   -10121.336   -1261.8269    32.817902     34.22419    33.184438    2.9773603    1165.6327    1296.1048 
 1048000    304.71222   -10175.314            0   -10117.927   -1561.6119    32.817902     34.22419    33.184438    2.4542942    1166.8742    1294.8857 
 1049000    298.03758   -10177.603            0   -10121.473   -1632.3406    32.817902     34.22419    33.184438    2.3608008    1168.1613    1293.7171 
 1050000    304.95703   -10178.634            0     -10121.2    -1732.479    32.817902     34.22419    33.184438    2.0042482    1169.4041    1292.4993 
 1051000    300.28471   -10175.448            0   -10118.894   -1906.4259    32.817902     34.22419    33.184438    2.0686255    1170.6868    1291.3254 
 1052000    301.56931    -10176.89            0   -10120.095   -758.90994    32.817902     34.22419    33.184438    2.0903988    1171.9244    1290.1017 
 1053000     299.1376   -10178.509            0   -10122.172   -933.73978    32.817902     34.22419    33.184438    2.2995911    1173.1442    1288.8583 
 1054000    311.92183   -10177.069            0   -10118.324   -1182.7419    32.817902     34.22419    33.184438    2.9934531    1174.4079    1287.6632 
 1055000    297.74549   -10176.369            0   -10120.294     155.7638    32.817902     34.22419    33.184438    2.7434157    1175.7495    1286.5532 
 1056000    295.12928   -10177.333            0   -10121.751   -1194.5567    32.817902     34.22419    33.184438    2.4669499    1177.0456    1285.3929 
 1057000    302.90744   -10175.504            0   -10118.457   -1420.4868    32.817902     34.22419    33.184438    2.0090194    1178.3275    1284.2169 
 1058000    299.51772    -10175.53            0   -10119.122   -797.02937    32.817902     34.22419    33.184438     2.329572    1179.5738     1283.002 
 1059000     293.0327   -10176.865            0   -10121.678   -1222.2621    32.817902     34.22419    33.184438    2.1135452    1180.7857    1281.7497 
 1060000    302.81994    -10176.46            0   -10119.429   -1501.5038    32.817902     34.22419    33.184438    2.3660903    1181.9627    1280.4596 
 1061000     293.5652   -10174.997            0    -10119.71   -816.53497    32.817902     34.22419    33.184438     2.350989    1183.1609    1279.1926 
 1062000    288.01482   -10177.829            0   -10123.586   -1834.5931    32.817902     34.22419    33.184438    2.1506087    1184.3681    1277.9357 
 1063000    304.46385   -10176.726            0   -10119.386   -1705.8523    32.817902     34.22419    33.184438    2.2733068    1185.5483    1276.6496 
 1064000     301.3573   -10175.923            0   -10119.168   -729.31439    32.817902     34.22419    33.184438    2.4758878    1186.7591    1275.3967 
 1065000    289.83132   -10177.709            0   -10123.124   -1535.8601    32.817902     34.22419    33.184438    2.9748682    1187.9384    1274.1101 
 1066000    304.51782    -10177.51            0    -10120.16   -1804.0597    32.817902     34.22419    33.184438    2.2425811    1189.1502    1272.8585 
 1067000    304.87076   -10176.753            0   -10119.336   -1387.5341    32.817902     34.22419    33.184438     2.338316     1190.328    1271.5707 
 1068000    292.68101   -10177.061            0    -10121.94   -1677.3092    32.817902     34.22419    33.184438    2.1271383     1191.546    1270.3259 
 1069000    292.84975    -10176.09            0   -10120.937   -1260.2855    32.817902     34.22419    33.184438    2.4188723    1192.7567    1269.0735 
 1070000    303.78144   -10175.914            0   -10118.703   -933.95168    32.817902     34.22419    33.184438    2.4218749    1194.0169    1267.8736 
 1071000    291.96556   -10177.088            0   -10122.102   -1226.5171    32.817902     34.22419    33.184438    2.2994525    1195.1976    1266.5895 
 1072000    303.82275   -10176.743            0   -10119.523   -2169.3074    32.817902     34.22419    33.184438    2.3692454    1196.4269    1265.3568 
 1073000    299.84548   -10174.658            0   -10118.188   -452.88148    32.817902     34.22419    33.184438    2.3166533     1197.613    1264.0786 
 1074000    298.45672   -10177.751            0   -10121.542    -2229.076    32.817902     34.22419    33.184438    2.2050521    1198.8308    1262.8341 
 1075000    304.74149    -10174.74            0   -10117.348   -1311.2417    32.817902     34.22419    33.184438    1.9532655    1200.0614     1261.603 
 1076000    297.58453   -10175.303            0   -10119.259   -1952.1777    32.817902     34.22419    33.184438    2.8149233    1201.2933    1260.3733 
 1077000    296.22041   -10176.411            0   -10120.623   -1207.4034    32.817902     34.22419    33.184438     2.273044    1202.4677    1259.0834 
 1078000    316.96044   -10175.294            0     -10115.6   -991.61402    32.817902     34.22419    33.184438    2.8146049    1203.6746    1257.8277 
 1079000    307.04942   -10175.972            0   -10118.145   -1106.3207    32.817902     34.22419    33.184438    2.3213144    1204.9033    1256.5948 
 1080000    296.83368   -10176.471            0   -10120.567   -623.27149    32.817902     34.22419    33.184438    2.6847228    1206.1404    1255.3707 
 1081000    297.33736   -10175.998            0       -10120   -990.78879    32.817902     34.22419    33.184438    2.2655667    1207.3928    1254.1624 
 1082000    306.82206   -10174.908            0   -10117.124   -1170.0524    32.817902     34.22419    33.184438    2.4499333    1208.6944     1253.005 
 1083000    298.56402   -10177.692            0   -10121.463   -1219.2009    32.817902     34.22419    33.184438    2.4882606    1210.0088    1251.8606 
 1084000    304.53807   -10177.506            0   -10120.151     -1299.84    32.817902     34.22419    33.184438    2.7170491    1211.3368    1250.7298 
 1085000    315.27815   -10175.163            0   -10115.786   -1126.8155    32.817902     34.22419    33.184438    3.2196419    1212.5849    1249.5164 
 1086000    306.48821   -10176.837            0   -10119.116   -2239.7665    32.817902     34.22419    33.184438     2.422671    1213.8579    1248.3285 
 1087000    296.52564    -10176.67            0   -10120.824   -931.21054    32.817902     34.22419    33.184438    2.6835639    1215.1901    1247.2012 
 1088000    302.64952   -10176.586            0   -10119.588   -1547.9889    32.817902     34.22419    33.184438    2.7301661     1216.455    1246.0045 
 1089000    302.17693   -10174.254            0   -10117.344    -1827.598    32.817902     34.22419    33.184438    2.2464449    1217.7787    1244.8678 
 1090000    297.39798   -10177.198            0   -10121.189   -1331.7684    32.817902     34.22419    33.184438    1.9775926    1219.0771     1243.705 
 1091000    294.78005   -10174.745            0   -10119.229   -903.97721    32.817902     34.22419    33.184438    2.0863334    1220.2743    1242.4387 
 1092000    307.20986   -10174.265            0   -10116.408   -1084.6215    32.817902     34.22419    33.184438    2.2553244    1221.4967    1241.1982 
 1093000    304.36836   -10177.758            0   -10120.436   -1722.4826    32.817902     34.22419    33.184438     2.524387    1222.6936     1239.932 
 1094000    303.21647   -10177.042            0   -10119.937   -1648.2417    32.817902     34.22419    33.184438    2.2140587    1223.9087    1238.6843 
 1095000    305.17517   -10174.531            0   -10117.057   -1220.6592    32.817902     34.22419    33.184438    1.8534004     1225.092    1237.4044 
 1096000    301.55368   -10175.902            0    -10119.11   -791.03835    32.817902     34.22419    33.184438    2.2598137    1226.3418    1236.1919 
 1097000    290.89372   -10176.055            0    -10121.27   -1190.4717    32.817902     34.22419    33.184438    2.1843061    1227.5491    1234.9366 
 1098000    301.81931    -10176.16            0   -10119.318   -1438.5445    32.817902     34.22419    33.184438    2.2503566    1228.7381    1233.6629 
 1099000    305.69822   -10175.521            0   -10117.948   -1270.1605    32.817902     34.22419    33.184438    2.7719722    1229.9384    1232.4008 
 1100000     294.6889   -10177.285            0   -10121.786   -1527.1902    32.817902     34.22419    33.184438    2.4759392    1231.2405    1231.2405 
 1101000    309.08888   -10178.423            0   -10120.211   -2405.1592    32.817902     34.22419    33.184438    2.3889604    1232.4676    1230.0052 
 1102000    297.35952   -10175.695            0   -10119.693   -1757.0468    32.817902     34.22419    33.184438     2.407076    1233.6844    1228.7595 
 1103000    303.94472   -10174.594            0   -10117.351   -1912.6727    32.817902     34.22419    33.184438     2.108718     1234.861     1227.474 
 1104000    301.96239   -10176.852            0   -10119.983   -2065.9737    32.817902     34.22419    33.184438    2.0561813    1236.0583    1226.2092 
 1105000     299.1284   -10177.244            0   -10120.909   -832.50472    32.817902     34.22419    33.184438    2.2123132    1237.2669    1224.9558 
 1106000    310.45178   -10174.539            0   -10116.071   -1312.2352    32.817902     34.22419    33.184438    2.6118617    1238.4495    1223.6768 
 1107000    307.21028   -10175.689            0   -10117.832   -1689.6286    32.817902     34.22419    33.184438     2.897509    1239.6568    1222.4223 
 1108000    290.25813   -10175.566            0   -10120.901   -2158.1534    32.817902     34.22419    33.184438    2.4571488    1240.8967    1221.1999 
 1109000    303.47508   -10175.653            0   -10118.499   -2301.5877    32.817902     34.22419    33.184438    2.5078858    1242.0765    1219.9185 
 1110000    303.61216   -10175.197            0   -10118.017    -1492.491    32.817902     34.22419    33.184438    2.1893228    1243.3347    1218.7142 
 1111000    296.39582    -10176.01            0    -10120.19   -1508.2121    32.817902     34.22419    33.184438    2.1288305    1244.5111    1217.4297 
 1112000    304.42037   -10175.629            0   -10118.297   -2124.2707    32.817902     34.22419    33.184438     2.253792     1245.711    1216.1684 
 1113000    299.78287   -10172.782            0   -10116.324   -1669.6742    32.817902     34.22419    33.184438    3.4600899    1246.9594    1214.9546 
 1114000    300.89145   -10176.898            0   -10120.231   -1635.9424    32.817902     34.22419    33.184438    2.4869126    1248.2644    1213.7956 
 1115000    309.78272   -10176.486            0   -10118.144   -1373.3258    32.817902     34.22419    33.184438    2.4042098    1249.5472    1212.6148 
 1116000    298.24543   -10175.028            0   -10118.858   -2134.1416    32.817902     34.22419    33.184438    2.3622894    1250.8021    1211.4068 
 1117000    298.18011    -10177.62            0   -10121.463   -1998.5551    32.817902     34.22419    33.184438    2.2132484    1252.0619    1210.2033 
 1118000    299.26322   -10174.528            0   -10118.167   -759.41325    32.817902     34.22419    33.184438     3.310973     1253.321    1208.9993 
 1119000    308.61611   -10177.168            0   -10119.046   -2700.9559    32.817902     34.22419    33.184438    2.2799106     1254.564    1207.7794 
 1120000    297.10375   -10176.993            0   -10121.038    -1073.466    32.817902     34.22419    33.184438    2.2929209    1255.8581    1206.6088 
 1121000    283.31077   -10176.107            0    -10122.75   -3143.7024    32.817902     34.22419    33.184438    1.9863077    1257.1763     1205.461 
 1122000    306.74635   -10176.118            0   -10118.348   -1204.7768    32.817902     34.22419    33.184438    2.6270174    1258.4876    1204.3061 
 1123000    297.75605   -10176.224            0   -10120.147   -1711.8427    32.817902     34.22419    33.184438     2.566956    1259.7433     1203.098 
 1124000    290.53424   -10176.822            0   -10122.105   -1816.0149    32.817902     34.22419    33.184438    2.3686944    1260.9607    1201.8531 
 1125000    296.11528   -10175.898            0    -10120.13   -2741.3152    32.817902     34.22419    33.184438     2.437337    1262.1878    1200.6177 
 1126000    302.22118   -10175.544            0   -10118.626   -1140.5592    32.817902     34.22419    33.184438    2.8254647    1263.4042     1199.372 
 1127000    297.01979   -10177.565            0   -10121.627   -1626.2626    32.817902     34.22419    33.184438    3.1189261    1264.5999    1198.1068 
 1128000    304.01887   -10177.682            0   -10120.425   -2556.6612    32.817902     34.22419    33.184438    2.1596741    1265.7963    1196.8424 
 1129000    304.65959   -10175.907            0    -10118.53   -1353.6297    32.817902     34.22419    33.184438    2.2158238    1267.0262    1195.6097 
 1130000    303.18075   -10177.631            0   -10120.533   -1801.3088    32.817902     34.22419    33.184438     2.304416    1268.2737    1194.3937 
 1131000     300.5094    -10176.89            0   -10120.295   -1275.8986    32.817902     34.22419    33.184438    2.9036365    1269.4578    1193.1179 
 1132000    295.04311   -10175.555            0   -10119.988   -930.68988    32.817902     34.22419    33.184438    2.5712697    1270.6458    1191.8461 
 1133000    310.52449   -10177.218            0   -10118.736   -542.13021    32.817902     34.22419    33.184438    2.5071082     1271.882    1190.6195 
 1134000    308.70631   -10178.187            0   -10120.048   -693.26627    32.817902     34.22419    33.184438    2.6542952    1273.0769    1189.3542 
 1135000    294.89302   -10177.721            0   -10122.184   -2054.8187    32.817902     34.22419    33.184438    2.3292668    1274.2971    1188.1128 
 1136000    300.08326   -10174.259            0   -10117.744   -2193.0391    32.817902     34.22419    33.184438    3.0310438    1275.5369    1186.8895 
 1137000    301.29113   -10176.744            0   -10120.002   -1880.2576    32.817902     34.22419    33.184438    2.5720771    1276.7444    1185.6363 
 1138000    303.55729   -10178.728            0   -10121.559   -1670.2229    32.817902     34.22419    33.184438    1.9065935    1277.9322    1184.3649 
 1139000    304.64381   -10174.313            0   -10116.938   -1483.9445    32.817902     34.22419    33.184438    2.2244027     1279.148    1183.1196 
 1140000    305.76509   -10177.724            0   -10120.138   -1607.0695    32.817902     34.22419    33.184438    2.0270667    1280.3636    1181.8741 
 1141000    308.58502   -10178.997            0    -10120.88   -2339.9179    32.817902     34.22419    33.184438    2.0300774    1281.5511    1180.6028 
 1142000    312.80723   -10175.991            0   -10117.079   -1244.1305    32.817902     34.22419    33.184438    2.3615949    1282.7854    1179.3747 
 1143000    299.67678   -10175.304            0   -10118.866   -1024.3678    32.817902     34.22419    33.184438     2.015656      1283.99    1178.1193 
 1144000    295.75835   -10176.718            0   -10121.017   -716.27516    32.817902     34.22419    33.184438    2.3809182    1285.1873    1176.8573 
 1145000     300.1791   -10178.508            0   -10121.975   -2515.5927    32.817902     34.22419    33.184438    2.4008704     1286.435    1175.6415 
 1146000    311.54888   -10177.015            0    -10118.34   -1259.8194    32.817902     34.22419    33.184438    2.3323468    1287.7426    1174.4803 
 1147000    299.51494   -10177.883            0   -10121.475   -1180.2988    32.817902     34.22419    33.184438    2.1976516    1289.0387    1173.3084 
 1148000     297.1927   -10177.151            0    -10121.18   -2171.1892    32.817902     34.22419    33.184438    2.7874413    1290.3206    1172.1233 
 1149000     306.4053   -10176.555            0   -10118.849   -1542.0941    32.817902     34.22419    33.184438    2.6095892    1291.6163    1170.9505 
 1150000    301.44469   -10179.186            0   -10122.414   -770.18524    32.817902     34.22419    33.184438    2.1460472     1292.805    1169.6807 
 1151000    296.96348   -10176.596            0   -10120.668   -2318.6819    32.817902     34.22419    33.184438    2.5280595    1294.0653    1168.4757 
 1152000    304.92097   -10176.633            0   -10119.206   -1340.7458    32.817902     34.22419    33.184438    2.3682562    1295.3093    1167.2559 
 1153000     297.6257   -10178.008            0   -10121.956   -1702.2494    32.817902     34.22419    33.184438    1.9879913    1296.6211    1166.0971 
 1154000    281.73346   -10177.546            0   -10124.487   -1585.7881    32.817902     34.22419    33.184438    2.4802399    1297.9117    1164.9188 
 1155000    302.43895   -10177.481            0   -10120.522   -1671.6658    32.817902     34.22419    33.184438    2.5686227    1299.2509     1163.784 
 1156000    296.82121   -10174.778            0   -10118.877   -1107.1983    32.817902     34.22419    33.184438    2.3445632     1300.444    1162.5181 
 1157000    291.33181    -10178.11            0   -10123.243   -890.65302    32.817902     34.22419    33.184438    2.4756906    1301.6198     1161.237 
 1158000    291.34514   -10175.649            0    -10120.78   -1195.7303    32.817902     34.22419    33.184438    2.2514474    1302.8404    1159.9959 
 1159000    300.58527   -10175.942            0   -10119.332   -2130.7673    32.817902     34.22419    33.184438    2.1173287    1304.1003    1158.7898 
 1160000    292.13143    -10176.18            0   -10121.162   -1580.4507    32.817902     34.22419    33.184438    2.1217754    1305.3387    1157.5645 
 1161000    295.77175   -10177.425            0   -10121.722   -1320.5106    32.817902     34.22419    33.184438    1.8916817    1306.5778    1156.3398 
 1162000    301.26977   -10175.359            0    -10118.62   -1705.7166    32.817902     34.22419    33.184438    2.5094232    1307.8092    1155.1083 
 1163000    309.76619   -10178.919            0    -10120.58   -1093.9641    32.817902     34.22419    33.184438     2.409471    1309.0176    1153.8565 
 1164000    282.72446   -10178.946            0     -10125.7   -2086.1632    32.817902     34.22419    33.184438    2.1602001     1310.184    1152.5679 
 1165000     299.5179   -10178.564            0   -10122.155   -2190.7459    32.817902     34.22419    33.184438    1.9731524     1311.361    1151.2888 
 1166000    303.16122     -10175.7            0   -10118.605   -1511.1617    32.817902     34.22419    33.184438    2.2970518    1312.5622    1150.0311 
 1167000    295.94386   -10176.116            0   -10120.381   -1374.4165    32.817902     34.22419    33.184438     2.718287    1313.7534    1148.7647 
 1168000    295.95173   -10177.776            0   -10122.039   -2434.4441    32.817902     34.22419    33.184438     2.859311    1314.9529    1147.5057 
 1169000    295.16662   -10175.598            0   -10120.009   -2014.4085    32.817902     34.22419    33.184438    2.5391316    1316.1176    1146.2166 
 1170000    290.19965    -10174.86            0   -10120.206   -1741.5731    32.817902     34.22419    33.184438    2.4497619    1317.3056    1144.9479 
 1171000    285.68776    -10176.43            0   -10122.626   -1052.9307    32.817902     34.22419    33.184438    2.1787175    1318.5138    1143.6968 
 1172000    304.98521    -10176.55            0   -10119.112   -1798.1915    32.817902     34.22419    33.184438    2.6292921    1319.7555    1142.4749 
 1173000    304.88699   -10176.253            0   -10118.833   -971.36076    32.817902     34.22419    33.184438    2.9204842    1320.9936    1141.2499 
 1174000    292.08112   -10178.568            0    -10123.56   -2166.8406    32.817902     34.22419    33.184438    2.9145186    1322.1934    1139.9917 
 1175000    295.85015   -10177.185            0   -10121.467   -1646.4857    32.817902     34.22419    33.184438    2.7799491    1323.4097    1138.7479 
 1176000    298.62328   -10175.129            0   -10118.889    -1375.866    32.817902     34.22419    33.184438    2.4879586    1324.6172    1137.4965 
 1177000    297.21685   -10175.891            0   -10119.915    -1054.782    32.817902     34.22419    33.184438    2.5254573    1325.8798    1136.2926 
 1178000    290.91193   -10177.323            0   -10122.535   -2022.5192    32.817902     34.22419    33.184438    1.9136921    1327.1689    1135.1111 
 1179000    297.46732   -10175.728            0   -10119.705   -1593.6041    32.817902     34.22419    33.184438    2.3317037    1328.4806    1133.9487 
 1180000     295.8912   -10176.349            0   -10120.623   -1732.9734    32.817902     34.22419    33.184438    2.1026996    1329.7484    1132.7486 
 1181000    306.85346   -10179.921            0    -10122.13   -958.83231    32.817902     34.22419    33.184438    2.3057971    1331.1177    1131.6348 
 1182000     302.2715   -10176.773            0   -10119.846    -923.1884    32.817902     34.22419    33.184438    2.6115667    1332.2927    1130.3556 
 1183000    301.28631   -10175.301            0   -10118.559   -1103.1478    32.817902     34.22419    33.184438    2.5122667    1333.5257    1129.1256 
 1184000    294.95023   -10178.684            0   -10123.135     -2413.47    32.817902     34.22419    33.184438    2.0820579    1334.7506    1127.8889 
 1185000    301.17614   -10177.058            0   -10120.337   -1823.1295    32.817902     34.22419    33.184438    2.5527058    1336.0633    1126.7262 
 1186000    307.01811   -10176.199            0   -10118.378   -2196.8303    32.817902     34.22419    33.184438    2.5468814    1337.3374    1125.5307 
 1187000    285.14942   -10176.857            0   -10123.154   -2605.1069    32.817902     34.22419    33.184438    2.0682315    1338.6357    1124.3554 
 1188000    303.49751   -10177.799            0   -10120.641   -2208.7537    32.817902     34.22419    33.184438    2.2496742    1339.8856    1123.1394 
 1189000    303.76281   -10176.295            0   -10119.087   -2004.6629    32.817902     34.22419    33.184438    2.0662535    1341.0931    1121.8878 
 1190000     296.5627   -10179.416            0   -10123.563   -2028.7634    32.817902     34.22419    33.184438    2.4855247    1342.3418    1120.6706 
 1191000    296.86567   -10177.331            0   -10121.422   -2633.9591    32.817902     34.22419    33.184438     2.321905    1343.5477    1119.4179 
 1192000    310.91143    -10177.91            0   -10119.356   -1910.4004    32.817902     34.22419    33.184438    2.0587233    1344.7249    1118.1412 
 1193000     299.7135   -10178.093            0   -10121.648   -3067.2662    32.817902     34.22419    33.184438    2.5584184    1345.8939     1116.858 
 1194000    294.37815    -10176.89            0    -10121.45   -1871.2001    32.817902     34.22419    33.184438    2.4849742    1347.1242    1115.6257 
 1195000    304.59116   -10176.186            0   -10118.822   -2086.0908    32.817902     34.22419    33.184438    2.1519065     1348.342    1114.3831 
 1196000    295.07663   -10176.327            0   -10120.754   -1577.0841    32.817902     34.22419    33.184438     2.627259    1349.5741    1113.1524 
 1197000     290.5622   -10177.873            0   -10123.151   -1802.4746    32.817902     34.22419    33.184438    2.4266688    1350.7931    1111.9108 
 1198000    300.40954   -10176.414            0   -10119.837   -1591.4563    32.817902     34.22419    33.184438    2.6296103    1352.0232    1110.6785 
 1199000    291.67778   -10175.524            0   -10120.592   -2142.1289    32.817902     34.22419    33.184438    2.5390482    1353.1891    1109.3935 
 1200000    289.85954   -10178.165            0   -10123.575   -996.44923    32.817902     34.22419    33.184438    2.6970298    1354.3565    1108.1099 
 1201000    294.53002   -10175.874            0   -10120.404   -2384.1972    32.817902     34.22419    33.184438    2.6165391    1355.5765    1106.8695 
 1202000    304.16246   -10176.588            0   -10119.304   -1171.8185    32.817902     34.22419    33.184438    2.2166352    1356.7753    1105.6118 
 1203000    302.04528    -10176.99            0   -10120.105   -1381.7033    32.817902     34.22419    33.184438    2.3181786    1358.0023    1104.3772 
 1204000    296.20838   -10177.889            0   -10122.103   -1680.0528    32.817902     34.22419    33.184438     2.003061    1359.1814    1103.1037 
 1205000    299.93374   -10174.246            0   -10117.759   -1002.5376    32.817902     34.22419    33.184438    2.2641586    1360.3808    1101.8469 
 1206000    303.64617   -10177.259            0   -10120.073   -1831.5399    32.817902     34.22419    33.184438    2.3554801     1361.564    1100.5771 
 1207000    296.98945   -10177.039            0   -10121.106   -2472.8678    32.817902     34.22419    33.184438    2.2066771    1362.7695    1099.3253 
 1208000    296.03193   -10176.134            0   -10120.381   -1076.5001    32.817902     34.22419    33.184438    2.1442596    1364.0178    1098.1082 
 1209000    306.17252   -10177.689            0   -10120.027   -1534.5778    32.817902     34.22419    33.184438    2.2414078    1365.1826    1096.8239 
 1210000    309.37785   -10178.403            0   -10120.137   -1561.7187    32.817902     34.22419    33.184438    2.7263098    1366.4346    1095.6097 
 1211000    292.60562   -10178.692            0   -10123.585   -2211.3243    32.817902     34.22419    33.184438    2.2533745    1367.7325    1094.4322 
 1212000    299.04119    -10177.39            0   -10121.071   -1791.3065    32.817902     34.22419    33.184438    2.0942068    1369.0062    1093.2351 
 1213000      304.892   -10176.912            0   -10119.491   -810.80744    32.817902     34.22419    33.184438    2.3418226    1370.3222    1092.0717 
 1214000    295.65362    -10178.78            0   -10123.099   -1867.2909    32.817902     34.22419    33.184438    2.8186061     1371.576    1090.8584 
 1215000    301.72566   -10177.776            0   -10120.952   -1773.4156    32.817902     34.22419    33.184438    2.3204471    1372.7282    1089.5646 
 1216000     311.9685   -10177.943            0   -10119.189   -1671.6408    32.817902     34.22419    33.184438    1.9993691    1373.9979    1088.3639 
 1217000    297.23114   -10177.504            0   -10121.526    -1830.897    32.817902     34.22419    33.184438    2.4739341    1375.2317    1087.1348 
 1218000    295.36088   -10178.296            0    -10122.67   -1029.4446    32.817902     34.22419    33.184438    2.1818425    1376.4894    1085.9245 
 1219000    309.41691    -10176.86            0   -10118.587    -1622.813    32.817902     34.22419    33.184438    2.3642876      1377.81    1084.7638 
 1220000    289.49006   -10176.406            0   -10121.886   -1604.4067    32.817902     34.22419    33.184438    2.3914021    1379.0592    1083.5465 
 1221000    298.10692    -10177.63            0   -10121.487   -1577.0343    32.817902     34.22419    33.184438    2.8053404    1380.3211    1082.3392 
 1222000    308.17568   -10178.063            0   -10120.024   -2198.8502    32.817902     34.22419    33.184438    2.3283891    1381.4775    1081.0493 
 1223000    295.29815   -10177.037            0   -10121.422   -1633.7345    32.817902     34.22419    33.184438    2.0020357    1382.6701    1079.7878 
 1224000    298.33066   -10177.098            0   -10120.913   -1735.8821    32.817902     34.22419    33.184438    2.2339216    1383.8634     1078.527 
 1225000     301.9331   -10174.661            0   -10117.797   -2743.0559    32.817902     34.22419    33.184438    2.5949282    1385.1009    1077.3007 
 1226000    297.72618   -10178.355            0   -10122.284   -1626.0636    32.817902     34.22419    33.184438    2.5073413    1386.3079    1076.0507 
 1227000    300.41196   -10177.532            0   -10120.955   -1886.9584    32.817902     34.22419    33.184438    2.0668558    1387.5321    1074.8142 
 1228000     296.4274    -10174.05            0   -10118.223   -1234.8391    32.817902     34.22419    33.184438    2.7622722    1388.7488    1073.5718 
 1229000    305.05251   -10175.182            0   -10117.731   -2316.9207    32.817902     34.22419    33.184438    2.0988126    1389.9355    1072.3063 
 1230000    295.82432   -10177.382            0   -10121.669   -1424.5214    32.817902     34.22419    33.184438    2.5245709    1391.1008    1071.0245 
 1231000     307.5025   -10177.084            0   -10119.172   -2023.4843    32.817902     34.22419    33.184438    1.8351876     1392.293    1069.7636 
 1232000    306.84013     -10175.6            0   -10117.812   -2832.4642    32.817902     34.22419    33.184438     2.256751    1393.5064    1068.5191 
 1233000    311.04885   -10178.902            0   -10120.321   -1712.3345    32.817902     34.22419    33.184438    2.0777881    1394.7347    1067.2859 
 1234000    305.38091   -10178.667            0   -10121.154   -3118.6499    32.817902     34.22419    33.184438    2.3379442    1395.9639    1066.0535 
 1235000    307.40471   -10175.233            0   -10117.339   -1791.9859    32.817902     34.22419    33.184438    2.2322408    1397.1712    1064.8045 
 1236000    307.20307   -10178.694            0   -10120.837     -2963.15    32.817902     34.22419    33.184438      2.11554    1398.3679    1063.5474 
 1237000    298.90089   -10177.275            0   -10120.982   -2230.8165    32.817902     34.22419    33.184438     2.247292    1399.6311    1062.3409 
 1238000    307.24697   -10175.973            0   -10118.109   -1397.0633    32.817902     34.22419    33.184438     2.367334    1400.8478    1061.0992 
 1239000    304.06889   -10174.662            0   -10117.396   -1704.5181    32.817902     34.22419    33.184438    2.1875895    1402.0422    1059.8405 
 1240000    304.20436   -10178.459            0   -10121.168   -1874.7588    32.817902     34.22419    33.184438    2.0482527    1403.2173    1058.5674 
 1241000    298.53257   -10175.698            0   -10119.474   -1835.4139    32.817902     34.22419    33.184438    2.5823996    1404.4331    1057.3252 
 1242000     302.3735   -10175.045            0   -10118.098   -2190.5194    32.817902     34.22419    33.184438    2.3261009    1405.6399    1056.0762 
 1243000    296.58866   -10178.178            0   -10122.321   -2557.1606    32.817902     34.22419    33.184438    2.2759414    1406.9193    1054.8817 
 1244000    300.18969   -10175.888            0   -10119.353   -1589.5021    32.817902     34.22419    33.184438    2.6192529    1408.1839    1053.6761 
 1245000    310.36884   -10177.207            0   -10118.755   -1700.4576    32.817902     34.22419    33.184438    2.7165384    1409.4673    1052.4843 
 1246000    297.38686    -10178.53            0   -10122.522   -2234.1999    32.817902     34.22419    33.184438    1.9913619    1410.7575    1051.2975 
 1247000    303.37908   -10176.056            0    -10118.92   -1141.0657    32.817902     34.22419    33.184438    2.0447528    1412.0127    1050.0844 
 1248000    303.22598   -10178.256            0   -10121.149   -1977.3103    32.817902     34.22419    33.184438    2.2896092    1413.2298     1048.843 
 1249000     304.0885   -10179.571            0   -10122.301   -2290.3199    32.817902     34.22419    33.184438    2.0635304    1414.5209    1047.6565 
 1250000    311.23612   -10178.134            0   -10119.518   -2037.4217    32.817902     34.22419    33.184438    2.4184145    1415.7403    1046.4168 
 1251000    298.35435   -10177.285            0   -10121.095   -1781.8181    32.817902     34.22419    33.184438    2.6044215    1416.9894     1045.199 
 1252000    301.33665   -10179.625            0   -10122.873   -2585.9895    32.817902     34.22419    33.184438    2.6534911    1418.2586    1043.9959 
 1253000    300.59919   -10176.479            0   -10119.866   -1300.7624    32.817902     34.22419    33.184438    2.3934808    1419.5285    1042.7933 
 1254000    294.52708   -10176.004            0   -10120.535    -1941.841    32.817902     34.22419    33.184438    2.1818383    1420.7291    1041.5397 
 1255000    285.20858   -10178.118            0   -10124.404   -2186.2909    32.817902     34.22419    33.184438    2.2475678    1421.9964     1040.335 
 1256000     291.2803   -10175.189            0   -10120.332    -1352.372    32.817902     34.22419    33.184438    2.4834705    1423.2314    1039.1067 
 1257000    298.90614   -10176.363            0   -10120.069   -1713.3289    32.817902     34.22419    33.184438    2.2448284    1424.4185    1037.8434 
 1258000    293.26734   -10179.123            0   -10123.891   -1475.2277    32.817902     34.22419    33.184438    2.4121853    1425.6133    1036.5858 
 1259000    300.28831   -10176.506            0   -10119.952   -2190.7532    32.817902     34.22419    33.184438    2.8193934    1426.8027    1035.3245 
 1260000    302.53396   -10177.558            0   -10120.582   -1920.2504    32.817902     34.22419    33.184438    2.8679362    1427.9797    1034.0543 
 1261000    300.34833   -10179.946            0   -10123.381   -1518.1315    32.817902     34.22419    33.184438    2.1834561    1429.1971    1032.8134 
 1262000     291.7975   -10176.093            0   -10121.138   -1739.2292    32.817902     34.22419    33.184438     2.369073    1430.4136     1031.572 
 1263000    303.13204   -10176.767            0   -10119.677   -2054.1453    32.817902     34.22419    33.184438    2.6653301    1431.6229    1030.3254 
 1264000    293.40919   -10179.035            0   -10123.777   -1658.6207    32.817902     34.22419    33.184438      2.40642    1432.8215    1029.0711 
 1265000    297.88223   -10177.966            0   -10121.866   -1473.5251    32.817902     34.22419    33.184438    2.4733006    1433.9883    1027.7942 
 1266000    303.13637   -10177.162            0   -10120.072   -2607.4905    32.817902     34.22419    33.184438    2.7188486    1435.1971    1026.5475 
 1267000    300.64819   -10175.977            0   -10119.355   -1953.8475    32.817902     34.22419    33.184438    2.8684972    1436.3848    1025.2858 
 1268000    301.37902   -10179.883            0   -10123.124   -1860.5147    32.817902     34.22419    33.184438    2.3386583    1437.5729    1024.0245 
 1269000    305.80102   -10177.564            0   -10119.972   -1750.6495    32.817902     34.22419    33.184438      2.19606    1438.7386    1022.7475 
 1270000     301.0414   -10177.234            0   -10120.538   -1974.6831    32.817902     34.22419    33.184438    2.2185849    1439.9432    1021.4981 
 1271000     290.8488   -10176.909            0   -10122.133   -1615.5208    32.817902     34.22419    33.184438    3.0333721    1441.1613    1020.2585 
 1272000    280.58413   -10175.708            0   -10122.865   -812.49529    32.817902     34.22419    33.184438    2.4500449     1442.339    1018.9903 
 1273000      305.559   -10176.901            0   -10119.355   -2863.7647    32.817902     34.22419    33.184438    2.0790813    1443.5788    1017.7662 
 1274000      299.143       -10179            0   -10122.662   -2942.2954    32.817902     34.22419    33.184438    1.9975263    1444.7449      1016.49 
 1275000     300.0668   -10176.412            0     -10119.9   -2121.2211    32.817902     34.22419    33.184438    2.1599056    1445.9403    1015.2346 
 1276000    294.06991   -10175.333            0    -10119.95   -2000.6258    32.817902     34.22419    33.184438    3.1690347    1447.1942    1014.0204 
 1277000    300.02633   -10179.022            0   -10122.517    -2561.941    32.817902     34.22419    33.184438    2.5574129    1448.4653    1012.8181 
 1278000    300.44631   -10174.528            0   -10117.944   -1630.3948    32.817902     34.22419    33.184438    2.5382515    1449.7176    1011.6026 
 1279000    303.67128   -10177.115            0   -10119.924   -1763.6222    32.817902     34.22419    33.184438    2.2348505    1450.9851    1010.3976 
 1280000     301.8114   -10178.385            0   -10121.544   -2198.4361    32.817902     34.22419    33.184438    2.0093664    1452.1913    1009.1499 
 1281000    307.07642   -10175.433            0   -10117.601   -1019.0562    32.817902     34.22419    33.184438    2.6429697    1453.5051    1007.9769 
 1282000    295.06236   -10176.469            0     -10120.9   -1581.3086    32.817902     34.22419    33.184438    2.3124505    1454.7834     1006.779 
 1283000    299.37641   -10177.474            0   -10121.092   -2013.5601    32.817902     34.22419    33.184438    2.1838338    1456.0768    1005.5915 
 1284000    311.13197   -10175.725            0   -10117.129   -1659.0781    32.817902     34.22419    33.184438    2.4758372    1457.3853    1004.4142 
 1285000    303.97308    -10179.57            0   -10122.323    -1836.821    32.817902     34.22419    33.184438    2.2637328    1458.6699    1003.2202 
 1286000    293.32101   -10175.236            0   -10119.995   -994.26634    32.817902     34.22419    33.184438    2.5206904    1459.9012    1001.9895 
 1287000     295.6174   -10175.224            0   -10119.549   -2314.8227    32.817902     34.22419    33.184438    2.7596347    1461.0658    1000.7131 
 1288000    293.46829   -10178.089            0    -10122.82   -1689.0917    32.817902     34.22419    33.184438    2.1237518    1462.2719    999.46529 
 1289000      302.037     -10176.6            0   -10119.717   -1895.5645    32.817902     34.22419    33.184438    2.8146433    1463.4964    998.23009 
 1290000    297.22011   -10175.943            0   -10119.966   -1036.1387    32.817902     34.22419    33.184438    2.5194531    1464.7005    996.98103 
 1291000    305.62451   -10178.329            0    -10120.77    -2624.648    32.817902     34.22419    33.184438    2.0542852    1465.8965     995.7265 
 1292000    296.42118   -10176.915            0    -10121.09    -2318.483    32.817902     34.22419    33.184438    2.2995754    1467.1028    994.47906 
 1293000    288.05741     -10177.2            0   -10122.949   -1491.9735    32.817902     34.22419    33.184438    2.1271579    1468.2775    993.21037 
 1294000    303.28757     -10177.1            0   -10119.982   -2016.9959    32.817902     34.22419    33.184438    2.4933348    1469.5458    992.00493 
 1295000    297.32324   -10175.728            0   -10119.732   -1666.7915    32.817902     34.22419    33.184438    2.1632233    1470.7543     990.7592 
 1296000    288.15085   -10177.438            0    -10123.17   -2549.1668    32.817902     34.22419    33.184438    2.5202688      1471.96    989.51154 
 1297000    305.52336   -10177.399            0   -10119.859    -2481.761    32.817902     34.22419    33.184438    2.3837481    1473.1655    988.26388 
 1298000    300.20722   -10176.637            0   -10120.098   -1979.9496    32.817902     34.22419    33.184438    2.2977093    1474.3505    987.00256 
 1299000    284.61075    -10177.91            0   -10124.309   -1910.0682    32.817902     34.22419    33.184438    2.2247732     1475.556    985.75509 
 1300000    294.86979   -10175.689            0   -10120.156   -2080.4803    32.817902     34.22419    33.184438    2.0949489    1476.7825    984.52166 
 1301000    292.89098    -10175.49            0   -10120.329   -1095.2602    32.817902     34.22419    33.184438    2.5149749    1477.9982    983.28109 
 1302000     291.7477   -10178.738            0   -10123.792   -1782.3466    32.817902     34.22419    33.184438    2.6922966    1479.1889    982.02389 
 1303000    302.20701   -10178.079            0   -10121.164   -1936.1513    32.817902     34.22419    33.184438    2.7605092    1480.3742     980.7633 
 1304000    302.79343    -10176.93            0   -10119.905   -2748.8751    32.817902     34.22419    33.184438    2.5688564     1481.572    979.51109 
 1305000    297.15533   -10178.957            0   -10122.994   -1874.9548    32.817902     34.22419    33.184438    2.0489407    1482.7699    978.25896 
 1306000    296.76728    -10177.77            0   -10121.879   -1021.5131    32.817902     34.22419    33.184438     2.451591    1483.9851    977.01837 
 1307000    299.67846   -10176.427            0   -10119.988   -2328.8466    32.817902     34.22419    33.184438    2.8628117    1485.1706    975.75833 
 1308000    298.91735   -10178.116            0    -10121.82   -2459.7416    32.817902     34.22419    33.184438    2.3886253    1486.3803    974.51426 
 1309000    291.95356   -10178.391            0   -10123.407   -2401.7056    32.817902     34.22419    33.184438    2.2374732    1487.6124     973.2849 
 1310000    305.94416   -10176.914            0   -10119.294   -914.08924    32.817902     34.22419    33.184438    2.4610904    1488.9701    972.13751 
 1311000    293.12816   -10177.275            0    -10122.07   -2302.0478    32.817902     34.22419    33.184438    2.5317769    1490.2549     970.9423 
 1312000    290.01057   -10178.057            0   -10123.439   -2531.0027    32.817902     34.22419    33.184438    2.5426662    1491.5908    969.78014 
 1313000     299.7615   -10176.957            0   -10120.503   -1637.1656    32.817902     34.22419    33.184438    2.1226162    1492.9038     968.6029 
 1314000    303.28211   -10176.264            0   -10119.146   -2424.9835    32.817902     34.22419    33.184438    2.2788433    1494.1989    967.41378 
 1315000    292.67872   -10178.491            0    -10123.37   -2199.7912    32.817902     34.22419    33.184438    2.3822846    1495.4967    966.22629 
 1316000    307.37797   -10177.934            0   -10120.044   -1917.4807    32.817902     34.22419    33.184438    2.1029835    1496.8028    965.04391 
 1317000    299.92206   -10176.555            0    -10120.07   -1661.1149    32.817902     34.22419    33.184438    2.0971675    1498.0746    963.83928 
 1318000    299.01041   -10177.541            0   -10121.228    -1252.984    32.817902     34.22419    33.184438    1.9495539    1499.3771    962.65426 
 1319000    280.89151   -10177.845            0   -10124.944   -1967.8277    32.817902     34.22419    33.184438    2.3273716    1500.5939    961.41414 
 1320000      301.391   -10177.617            0   -10120.855   -1876.8137    32.817902     34.22419    33.184438    2.2966176    1501.7722    960.14944 
 1321000    292.23912   -10176.185            0   -10121.147   -1903.3442    32.817902     34.22419    33.184438    2.1294152    1502.9622    958.89237 
 1322000     295.8144   -10179.498            0   -10123.786   -1101.3535    32.817902     34.22419    33.184438    2.3615185      1504.16    957.64033 
 1323000    307.77475   -10178.232            0   -10120.268   -1232.5867    32.817902     34.22419    33.184438    2.8952339    1505.3454    956.38055 
 1324000    302.85444   -10177.177            0    -10120.14   -1841.2024    32.817902     34.22419    33.184438    2.2487058    1506.5304    955.12061 
 1325000    293.68134   -10179.082            0   -10123.773   -2280.2879    32.817902     34.22419    33.184438    2.5655589    1507.7734    953.89745 
 1326000    310.58727   -10177.147            0   -10118.654   -2018.4026    32.817902     34.22419    33.184438    1.9764691    1508.9588    952.63796 
 1327000    285.50771   -10175.095            0   -10121.325   -994.67894    32.817902     34.22419    33.184438    2.5624324    1510.2373    951.43716 
 1328000    292.48597   -10176.895            0   -10121.811   -1578.3624    32.817902     34.22419    33.184438    2.0307675     1511.404    950.16603 
 1329000    309.62886   -10176.512            0   -10118.199   -1253.7498    32.817902     34.22419    33.184438    2.2477112    1512.6044     948.9162 
 1330000    292.80196   -10176.964            0    -10121.82    -1069.827    32.817902     34.22419    33.184438    2.3186214    1513.8006    947.66381 
 1331000    298.52301   -10177.635            0   -10121.414   -1649.5464    32.817902     34.22419    33.184438    2.3322431    1515.0185    946.42504 
 1332000    320.55092   -10176.676            0   -10116.306   -1893.0538    32.817902     34.22419    33.184438     1.830208    1516.2152    945.17312 
 1333000    305.37407   -10177.509            0   -10119.998   -1974.3994    32.817902     34.22419    33.184438    2.0308958    1517.3902    943.90775 
 1334000    295.71885   -10177.556            0   -10121.863   -2081.5897    32.817902     34.22419    33.184438    3.3786996    1518.6227    942.67827 
 1335000    312.53446   -10177.368            0   -10118.508   -1094.0478    32.817902     34.22419    33.184438    2.7148561    1519.8448    941.44236 
 1336000    300.47508   -10177.135            0   -10120.545   -2065.0632    32.817902     34.22419    33.184438    2.2878503    1521.0411    940.19043 
 1337000    294.92891   -10177.335            0    -10121.79   -1693.4474    32.817902     34.22419    33.184438    2.3893663    1522.2511    938.94715 
 1338000    302.85678   -10176.876            0   -10119.839    76.362894    32.817902     34.22419    33.184438      2.26983    1523.4458    937.69443 
 1339000    317.22935   -10178.496            0   -10118.751   -1775.1908    32.817902     34.22419    33.184438    2.1311845    1524.6237    936.43149 
 1340000    291.97635   -10177.562            0   -10122.574   -2075.7386    32.817902     34.22419    33.184438    2.5389178    1525.8853       935.22 
 1341000    302.83032   -10176.704            0   -10119.672   -929.63154    32.817902     34.22419    33.184438    2.4413573    1527.1397    934.00406 
 1342000    304.64999   -10176.136            0   -10118.761   -1408.5781    32.817902     34.22419    33.184438    1.9340919    1528.3641    932.76969 
 1343000    295.80065   -10178.679            0    -10122.97   -1582.4698    32.817902     34.22419    33.184438    2.3486829    1529.6507    931.57325 
 1344000    310.56791   -10177.935            0   -10119.445   -1702.5383    32.817902     34.22419    33.184438    2.2151349     1530.922    930.36742 
 1345000    298.43043    -10176.92            0   -10120.716   -1982.5842    32.817902     34.22419    33.184438    2.1235959    1532.1587    929.14039 
 1346000    299.46507    -10178.35            0   -10121.951   -882.58219    32.817902     34.22419    33.184438    2.3802304    1533.4332    927.93628 
 1347000    301.42779   -10177.336            0   -10120.568   -1545.6695    32.817902     34.22419    33.184438     2.126627    1534.6865    926.71929 
 1348000    304.71014   -10178.202            0   -10120.815   -2733.2846    32.817902     34.22419    33.184438    2.0831166    1535.9697    925.52019 
 1349000    296.05826   -10179.346            0   -10123.588   -1201.1808    32.817902     34.22419    33.184438    2.4338124    1537.2581    924.32414 
 1350000    305.50551   -10177.107            0   -10119.571   -1670.5734    32.817902     34.22419    33.184438    2.2462757     1538.545      923.127 
 1351000    302.36457   -10177.808            0   -10120.863   -1169.0813    32.817902     34.22419    33.184438    2.8156453     1539.831    921.92918 
 1352000     294.3288   -10179.258            0   -10123.827   -2052.4721    32.817902     34.22419    33.184438    1.9715509    1541.0156    920.67066 
 1353000     293.7114    -10179.66            0   -10124.345   -1622.1265    32.817902     34.22419    33.184438    2.6108062    1542.2751    919.45691 
 1354000    297.31199   -10175.962            0   -10119.969   -1760.3592    32.817902     34.22419    33.184438     2.254235    1543.4499    918.19266 
 1355000     299.7075   -10176.206            0   -10119.761   -1278.3717    32.817902     34.22419    33.184438    2.7537115    1544.6982    916.97224 
 1356000    291.09432    -10178.15            0   -10123.328   -1965.3967    32.817902     34.22419    33.184438     2.091689     1545.905    915.72719 
 1357000    303.18072   -10177.038            0   -10119.939   -1943.3465    32.817902     34.22419    33.184438    2.0162732    1547.1507    914.50516 
 1358000    301.56155    -10177.71            0   -10120.916   -2091.1696    32.817902     34.22419    33.184438    2.8506753    1548.3627    913.26321 
 1359000    291.49556   -10178.413            0   -10123.515   -2622.8615    32.817902     34.22419    33.184438    2.4689788    1549.5485    912.00592 
 1360000    294.73675   -10175.842            0   -10120.334   -1327.3766    32.817902     34.22419    33.184438    2.8741025    1550.7256    910.74362 
 1361000    307.71498   -10177.656            0   -10119.704   -665.69237    32.817902     34.22419    33.184438     2.454408    1551.8917    909.47501 
 1362000    292.22012   -10178.634            0     -10123.6   -2162.7473    32.817902     34.22419    33.184438    2.0779865    1553.0764    908.21739 
 1363000    292.49295   -10176.735            0   -10121.649   -1735.6679    32.817902     34.22419    33.184438    2.6711633     1554.296    906.98032 
 1364000    301.88625   -10177.095            0    -10120.24   -746.54173    32.817902     34.22419    33.184438    2.3392981    1555.4928       905.73 
 1365000    301.94429   -10178.935            0   -10122.069   -634.80693    32.817902     34.22419    33.184438    2.5621401    1556.7286    904.50238 
 1366000    293.62368   -10178.086            0   -10122.788   -1410.2562    32.817902     34.22419    33.184438    2.6521012    1557.9542    903.26888 
 1367000    297.29293   -10175.366            0   -10119.377   -1861.8314    32.817902     34.22419    33.184438    2.1684391    1559.1538    902.02029 
 1368000    298.11827    -10177.76            0   -10121.615   -2314.7375    32.817902     34.22419    33.184438    2.3178939    1560.3563    900.77354 
 1369000    300.70684   -10178.102            0   -10121.469   -2073.7776    32.817902     34.22419    33.184438    2.0442924    1561.5535    899.52372 
 1370000    298.45288   -10177.238            0    -10121.03   -1921.5911    32.817902     34.22419    33.184438    2.2677656    1562.7594      898.279 
 1371000    303.57282   -10180.707            0   -10123.534   -2085.8374    32.817902     34.22419    33.184438    2.0963324    1563.9977    897.05296 
 1372000    304.43059   -10177.481            0   -10120.147   -2759.9469    32.817902     34.22419    33.184438    2.5169601    1565.2024    895.80767 
 1373000    299.48898   -10176.643            0    -10120.24   -2157.3984    32.817902     34.22419    33.184438    2.3374855    1566.4793    894.60363 
 1374000    297.26045   -10177.633            0   -10121.649   -1626.4626    32.817902     34.22419    33.184438    3.1316142    1567.7462    893.39381 
 1375000    294.06112   -10176.642            0   -10121.261   -1250.0271    32.817902     34.22419    33.184438    2.4877102    1569.0123    892.18345 
 1376000    304.37751   -10176.943            0   -10119.619   -1770.1803    32.817902     34.22419    33.184438     3.031437    1570.2879    890.97841 
 1377000    305.71759   -10177.949            0   -10120.373   -2102.2392    32.817902     34.22419    33.184438    1.9965846    1571.5884    889.78731 
 1378000    295.46542   -10178.742            0   -10123.096   -2082.3137    32.817902     34.22419    33.184438    2.5653227    1572.8229    888.55876 
 1379000    312.98464   -10178.164            0   -10119.219   -1041.8209    32.817902     34.22419    33.184438    2.5826412    1574.0849    887.34575 
 1380000    324.66523   -10175.749            0   -10114.604   -1655.8912    32.817902     34.22419    33.184438     2.236931    1575.3509    886.13487 
 1381000     301.7222    -10177.51            0   -10120.686   -980.04226    32.817902     34.22419    33.184438    2.1628727    1576.5876    884.90746 
 1382000     304.8531   -10180.024            0   -10122.611   -1473.8973    32.817902     34.22419    33.184438    1.9942175    1577.8639    883.70224 
 1383000    314.30914   -10178.754            0   -10119.559   -1904.9957    32.817902     34.22419    33.184438    2.4291296     1579.126    882.48898 
 1384000    299.95241   -10177.469            0   -10120.979   -1945.6599    32.817902     34.22419    33.184438    2.0859027    1580.3036    881.22849 
 1385000    294.63552   -10178.174            0   -10122.684    -2947.059    32.817902     34.22419    33.184438    2.4155657    1581.5211    879.99034 
 1386000    304.49999   -10176.829            0   -10119.482   -1759.7495    32.817902     34.22419    33.184438    2.2444647    1582.7178     878.7407 
 1387000    297.34439   -10179.247            0   -10123.248   -1944.5213    32.817902     34.22419    33.184438    2.1658562    1583.9063    877.48657 
 1388000    298.25438   -10178.442            0   -10122.271   -2068.0914    32.817902     34.22419    33.184438     2.428796    1585.1426    876.25897 
 1389000    297.34353   -10176.202            0   -10120.203   -1695.7263    32.817902     34.22419    33.184438    3.2315974    1586.3294    875.00405 
 1390000    298.33118   -10177.656            0    -10121.47   -1230.1969    32.817902     34.22419    33.184438    2.8697848     1587.517    873.74966 
 1391000    298.89491    -10177.79            0   -10121.498   -1815.2033    32.817902     34.22419    33.184438    2.0839824    1588.6949    872.49007 
 1392000    299.71611   -10176.857            0   -10120.411   -1786.9056    32.817902     34.22419    33.184438    2.2812531    1589.9121    871.25214 
 1393000    310.37752   -10177.736            0   -10119.282   -1922.6178    32.817902     34.22419    33.184438    1.9478097    1591.1275    870.01324 
 1394000    298.72578   -10179.044            0   -10122.784   -1469.5264    32.817902     34.22419    33.184438    2.6027833    1592.3546    868.78077 
 1395000    311.55142   -10178.793            0   -10120.118   -802.68183    32.817902     34.22419    33.184438    2.4788487     1593.519    867.51421 
 1396000    305.58759   -10177.493            0   -10119.941   -2150.0203    32.817902     34.22419    33.184438    2.2471347    1594.7184    866.26681 
 1397000     294.9904   -10178.104            0   -10122.548   -1597.7062    32.817902     34.22419    33.184438    2.5321082    1595.9184    865.01976 
 1398000    310.65001   -10176.321            0   -10117.815   -1969.2001    32.817902     34.22419    33.184438    2.1806238    1597.1138    863.77035 
 1399000    300.64216   -10177.654            0   -10121.033   -1975.1889    32.817902     34.22419    33.184438    2.0804254    1598.3331    862.53388 
 1400000    297.67051   -10178.044            0   -10121.983   -1409.7446    32.817902     34.22419    33.184438    1.9545628    1599.5323    861.28661 
 1401000    316.39778    -10176.87            0   -10117.282   -2057.6801    32.817902     34.22419    33.184438    2.8288734    1600.7247    860.03577 
 1402000    297.63341   -10176.616            0   -10120.562   -1093.9907    32.817902     34.22419    33.184438    2.6145346    1601.9121    858.78236 
 1403000    303.87313   -10178.886            0   -10121.657   -2382.0826    32.817902     34.22419    33.184438    2.3637759    1603.1297    857.54523 
 1404000    295.45524   -10179.202            0   -10123.558   -2965.0909    32.817902     34.22419    33.184438    2.0908647    1604.3382    856.30319 
 1405000    308.21997   -10178.451            0   -10120.403   -1389.6115    32.817902     34.22419    33.184438     2.443998    1605.5688    855.07305 
 1406000     293.3895   -10175.916            0   -10120.661   -1494.1868    32.817902     34.22419    33.184438    2.3587022     1606.884    853.88784 
 1407000    292.11299   -10179.995            0   -10124.981   -2059.0384    32.817902     34.22419    33.184438    1.9226498    1608.1142    852.65735 
 1408000    294.91978   -10178.172            0   -10122.629    -2010.753    32.817902     34.22419    33.184438    2.5185223    1609.3827    851.44712 
 1409000    303.31382   -10177.173            0   -10120.049   -2056.6384    32.817902     34.22419    33.184438    2.3516699    1610.6708    850.24715 
 1410000    287.55728   -10177.089            0   -10122.933   -2227.9782    32.817902     34.22419    33.184438     2.634661    1611.9614    849.04839 
 1411000    289.44472    -10177.12            0   -10122.608   -2026.6507    32.817902     34.22419    33.184438    2.4495621     1613.146    847.79376 
 1412000    299.60245    -10176.18            0   -10119.755    -1529.565    32.817902     34.22419    33.184438    2.2274079    1614.4115    846.58163 
 1413000    304.35142    -10179.43            0   -10122.111   -2445.1721    32.817902     34.22419    33.184438    2.3766299    1615.6966    845.37972 
 1414000    305.01125   -10178.112            0   -10120.669   -1520.1327    32.817902     34.22419    33.184438    2.3572471    1617.0125    844.19374 
 1415000    302.08403   -10175.712            0    -10118.82    -1134.628    32.817902     34.22419    33.184438    2.8159215    1618.2939    842.98958 
 1416000    299.63722   -10179.094            0   -10122.663   -1339.7609    32.817902     34.22419    33.184438    2.5919206    1619.5285    841.76103 
 1417000    297.67715    -10176.77            0   -10120.708   -1959.7048    32.817902     34.22419    33.184438    2.3212774    1620.6855    840.49217 
 1418000    309.51238   -10176.347            0   -10118.056   -2432.9943    32.817902     34.22419    33.184438    2.4416174    1621.8486    839.22669 
 1419000    295.64221   -10175.604            0   -10119.925   -966.32507    32.817902     34.22419    33.184438     2.248915    1623.0544    837.98335 
 1420000    300.39257   -10179.124            0   -10122.551   -1137.2372    32.817902     34.22419    33.184438      2.23344     1624.304    836.76264 
 1421000     308.1391   -10176.724            0   -10118.692   -818.75627    32.817902     34.22419    33.184438    2.3831522     1625.512    835.52055 
 1422000    295.52869   -10175.593            0   -10119.936     -2209.98    32.817902     34.22419    33.184438    2.3401697    1626.7195    834.27821 
 1423000    301.07534   -10177.728            0   -10121.026   -1417.5982    32.817902     34.22419    33.184438    1.9222318    1627.9601    833.05288 
 1424000    294.52613   -10176.463            0   -10120.995   -2343.0922    32.817902     34.22419    33.184438    2.0981693    1629.1599    831.80673 
 1425000     301.5495   -10177.199            0   -10120.408   -1709.6623    32.817902     34.22419    33.184438    2.0390849     1630.378    830.56992 
 1426000    291.43912   -10177.306            0   -10122.419   -1619.2278    32.817902     34.22419    33.184438    2.3546922    1631.5581    829.31384 
 1427000    295.30946   -10178.363            0   -10122.747   -1823.0357    32.817902     34.22419    33.184438    2.4056938    1632.8203    828.09951 
 1428000    302.44649   -10175.905            0   -10118.944   -1723.9654    32.817902     34.22419    33.184438    2.5575275    1634.0316    826.85938 
 1429000    295.23101   -10177.987            0   -10122.385   -2011.5201    32.817902     34.22419    33.184438    2.5786382    1635.2825    825.63923 
 1430000    293.07195   -10177.692            0   -10122.497   -1448.8185    32.817902     34.22419    33.184438     2.389667    1636.4903    824.39738 
 1431000    305.51142    -10177.65            0   -10120.112   -1682.2916    32.817902     34.22419    33.184438    2.3827234    1637.6878    823.15038 
 1432000    307.69109   -10176.756            0   -10118.808   -1038.7718    32.817902     34.22419    33.184438    2.2610204     1638.933    821.92735 
 1433000    297.63923   -10179.055            0       -10123   -2238.4061    32.817902     34.22419    33.184438     2.833144     1640.174    820.70223 
 1434000    300.97723   -10176.739            0   -10120.055    -1570.748    32.817902     34.22419    33.184438    2.5229315    1641.3943    819.46672 
 1435000    300.18913   -10176.158            0   -10119.623   -1921.3511    32.817902     34.22419    33.184438    2.0823378    1642.6419    818.24482 
 1436000    292.22817   -10177.232            0   -10122.196   -1700.9325    32.817902     34.22419    33.184438    1.9884684    1643.8201    816.98844 
 1437000    291.06044   -10176.168            0   -10121.352    -2885.939    32.817902     34.22419    33.184438    2.4632007    1645.0502    815.75789 
 1438000    308.22227   -10177.456            0   -10119.408   -1335.6739    32.817902     34.22419    33.184438    2.5544081    1646.3441    814.55891 
 1439000    289.70723   -10177.561            0   -10122.999   -2159.3587    32.817902     34.22419    33.184438    2.4023623    1647.6028    813.34236 
 1440000    296.51634   -10177.342            0   -10121.498   -1695.6971    32.817902     34.22419    33.184438    2.6816774    1648.8804     812.1351 
 1441000    299.14157   -10177.474            0   -10121.136   -2106.2644    32.817902     34.22419    33.184438    2.3780302    1650.1801    810.93862 
 1442000    310.76822   -10179.841            0   -10121.314   -1879.6168    32.817902     34.22419    33.184438    2.1657299    1651.4627    809.73355 
 1443000    284.81579   -10177.907            0   -10124.267   -2292.9224    32.817902     34.22419    33.184438    2.3480835    1652.6545    808.48401 
 1444000    306.10307   -10177.883            0   -10120.234   -2782.4374    32.817902     34.22419    33.184438    2.2005564    1653.8988    807.26012 
 1445000    305.59596   -10178.117            0   -10120.564   -1590.8182    32.817902     34.22419    33.184438    2.3628449    1655.1501    806.03964 
 1446000    283.62779   -10178.156            0    -10124.74   -2266.6868    32.817902     34.22419    33.184438    2.1301453    1656.4572    804.84624 
 1447000    301.79558   -10177.267            0    -10120.43   -1720.0821    32.817902     34.22419    33.184438    2.3927027    1657.7179    803.63015 
 1448000    300.82698   -10177.693            0   -10121.037   -2338.4558    32.817902     34.22419    33.184438    2.2198052    1659.0184    802.43324 
 1449000    300.61243   -10179.669            0   -10123.054   -2821.0765    32.817902     34.22419    33.184438    2.9050062    1660.2845    801.21956 
 1450000    292.91446   -10174.204            0   -10119.039   -2258.5487    32.817902     34.22419    33.184438    2.3554444    1661.4839    799.97374 
 1451000     300.0658   -10177.055            0   -10120.543   -2965.3297    32.817902     34.22419    33.184438    2.4875735    1662.6743    798.72364 
 1452000    293.68743   -10178.144            0   -10122.833   -1615.3919    32.817902     34.22419    33.184438    2.7773127     1663.883    797.48238 
 1453000    303.40277   -10178.023            0   -10120.883   -1720.3237    32.817902     34.22419    33.184438    2.3742382    1665.0693    796.23046 
 1454000    305.15393    -10175.88            0    -10118.41   -1995.8726    32.817902     34.22419    33.184438    2.1729002     1666.296    794.99794 
 1455000    297.50657   -10177.221            0   -10121.191   -2268.5753    32.817902     34.22419    33.184438    2.4110851    1667.4754    793.74289 
 1456000    290.73238   -10177.266            0   -10122.512   -2250.5205    32.817902     34.22419    33.184438    2.4042192    1668.7119    792.51509 
 1457000    303.20304   -10175.448            0   -10118.345   -1321.5164    32.817902     34.22419    33.184438    2.3889538    1669.8767    791.25331 
 1458000    300.85725    -10179.32            0   -10122.659   -2394.2498    32.817902     34.22419    33.184438    2.3990229    1671.0837    790.01157 
 1459000    294.63821   -10177.003            0   -10121.513   -2155.3884    32.817902     34.22419    33.184438    2.5465386    1672.2738    788.76196 
 1460000    301.00621   -10176.822            0   -10120.133   -2483.3075    32.817902     34.22419    33.184438    2.4145094    1673.5161      787.537 
 1461000    298.95808   -10180.408            0   -10124.105   -2010.8763    32.817902     34.22419    33.184438    2.7406429     1674.716    786.29208 
 1462000    303.35648   -10179.122            0    -10121.99   -1912.2277    32.817902     34.22419    33.184438    2.2395317     1675.924    785.05106 
 1463000    306.03423    -10178.41            0   -10120.774   -2291.6056    32.817902     34.22419    33.184438    2.0930909    1677.1343    783.81112 
 1464000    310.01665    -10178.31            0   -10119.924    -2557.191    32.817902     34.22419    33.184438    2.3369323    1678.3118    782.55592 
 1465000    296.59841   -10178.632            0   -10122.773   -2913.2668    32.817902     34.22419    33.184438     2.139032    1679.5133    781.31205 
 1466000    297.52802   -10178.268            0   -10122.233   -1116.8934    32.817902     34.22419    33.184438    2.1477258    1680.7211    780.07114 
 1467000    307.53002   -10177.449            0   -10119.531   -1410.3249    32.817902     34.22419    33.184438    2.0587785    1681.9317    778.83157 
 1468000    296.32645   -10178.374            0   -10122.567   -2386.1156    32.817902     34.22419    33.184438    2.5736174    1683.1268     777.5849 
 1469000     303.9011   -10178.995            0    -10121.76   -2617.6989    32.817902     34.22419    33.184438    2.0672331    1684.3433    776.34816 
 1470000     297.8524   -10176.147            0   -10120.052   -1969.7507    32.817902     34.22419    33.184438    2.3711907    1685.5315    775.09844 
 1471000    312.23882   -10176.057            0   -10117.253   -2618.9535    32.817902     34.22419    33.184438    2.1919656    1686.7898    773.88094 
 1472000    302.62339   -10178.963            0   -10121.969   -1963.6883    32.817902     34.22419    33.184438    1.9532332    1688.0512    772.66482 
 1473000    297.88136   -10177.528            0   -10121.427   -1441.6964    32.817902     34.22419    33.184438    2.1522195    1689.3285     771.4559 
 1474000    306.26349   -10175.141            0   -10117.462   -2572.6447    32.817902     34.22419    33.184438    2.8417319    1690.6301    770.25794 
 1475000    302.29031   -10178.943            0   -10122.012   -2027.0082    32.817902     34.22419    33.184438    2.3368956     1691.896    769.04364 
 1476000     300.6564   -10178.375            0   -10121.751   -2624.8018    32.817902     34.22419    33.184438    2.1397374    1693.1203    767.81037 
 1477000    303.56311   -10175.535            0   -10118.365   -1594.7717    32.817902     34.22419    33.184438    2.3559882    1694.3808    766.59351 
 1478000    299.15988   -10178.174            0   -10121.832   -2087.2941    32.817902     34.22419    33.184438    3.1209843    1695.6624     765.3861 
 1479000     293.4821   -10177.532            0    -10122.26    -2598.052    32.817902     34.22419    33.184438    3.1936963     1696.931    764.17271 
 1480000    306.91641   -10177.109            0   -10119.307   -1869.0314    32.817902     34.22419    33.184438    2.2512919    1698.2399    762.97737 
 1481000    299.02815   -10178.907            0    -10122.59   -1604.3246    32.817902     34.22419    33.184438    2.2983297    1699.5144    761.76641 
 1482000    294.23072   -10177.828            0   -10122.415   -1967.9001    32.817902     34.22419    33.184438    2.4661634    1700.7044     760.5176 
 1483000    300.10074   -10175.891            0   -10119.373   -3060.5012    32.817902     34.22419    33.184438    2.6647768    1701.8638     759.2552 
 1484000    301.66202   -10178.236            0   -10121.423   -1269.9752    32.817902     34.22419    33.184438    2.1486323    1703.0559    758.00755 
 1485000     301.9514   -10178.739            0   -10121.872   -2567.3408    32.817902     34.22419    33.184438    2.4431137    1704.2791    756.77374 
 1486000    308.46118    -10176.19            0   -10118.097   -1824.5486    32.817902     34.22419    33.184438    2.5342334    1705.5001    755.53903 
 1487000    301.17993   -10177.737            0   -10121.015   -3027.7173    32.817902     34.22419    33.184438     2.139533    1706.7018    754.29575 
 1488000    305.12305   -10179.683            0   -10122.219   -2292.8742    32.817902     34.22419    33.184438    1.8459392    1707.9422    753.06963 
 1489000    309.55639   -10176.208            0   -10117.909   -1830.6069    32.817902     34.22419    33.184438    2.4748054    1709.1505    751.82934 
 1490000    305.26801   -10177.188            0   -10119.696   -2627.0627    32.817902     34.22419    33.184438    2.3770841    1710.3704    750.59419 
 1491000    302.36495   -10178.541            0   -10121.596   -1870.2545    32.817902     34.22419    33.184438    2.2632231    1711.5681    749.34937 
 1492000    299.60935   -10178.968            0   -10122.542   -2372.9705    32.817902     34.22419    33.184438    2.1625419    1712.7697    748.10629 
 1493000    300.57519   -10176.508            0     -10119.9   -2068.9792    32.817902     34.22419    33.184438    2.1460226    1713.9464    746.85243 
 1494000    303.53736   -10178.245            0   -10121.079   -2337.6596    32.817902     34.22419    33.184438    2.8110735    1715.1206    745.59764 
 1495000    294.11969   -10178.507            0   -10123.115   -2705.8031    32.817902     34.22419    33.184438     2.219834    1716.3631    744.37254 
 1496000    300.52494   -10177.132            0   -10120.533   -2059.0803    32.817902     34.22419    33.184438    1.8832021    1717.5628    743.12887 
 1497000    302.71743   -10178.265            0   -10121.253   -2443.1853    32.817902     34.22419    33.184438    2.9299766    1718.7422    741.87656 
 1498000    295.00163   -10176.898            0   -10121.339   -2436.2146    32.817902     34.22419    33.184438    2.3122252    1719.9591    740.64047 
 1499000    302.55037    -10175.19            0    -10118.21   -2381.7766    32.817902     34.22419    33.184438    2.5581164    1721.1883    739.40971 
 1500000    297.49994   -10178.304            0   -10122.275   -2061.7876    32.817902     34.22419    33.184438    2.2317969    1722.3958    738.16964 
 1501000    301.17477   -10178.189            0   -10121.468   -2583.2223    32.817902     34.22419    33.184438    2.0707345    1723.6137    736.93403 
 1502000    309.06778   -10176.793            0   -10118.586   -2046.0594    32.817902     34.22419    33.184438    3.2591129     1724.836    735.70037 
 1503000    297.67299   -10177.464            0   -10121.402    -3433.511    32.817902     34.22419    33.184438    2.5219449    1726.0857    734.47836 
 1504000    294.46339   -10176.562            0   -10121.105   -1511.3793    32.817902     34.22419    33.184438    2.9303092    1727.3557    733.26496 
 1505000    312.99216   -10176.798            0   -10117.852   -1524.1928    32.817902     34.22419    33.184438    2.1723326    1728.6901    732.07873 
 1506000     296.8974   -10177.078            0   -10121.163   -2128.4294    32.817902     34.22419    33.184438    2.2765391    1729.9777    730.87251 
 1507000    294.65842   -10176.834            0   -10121.341   -2118.0088    32.817902     34.22419    33.184438    2.3137801    1731.2663    729.66662 
 1508000    313.51973   -10176.357            0   -10117.311   -1951.0672    32.817902     34.22419    33.184438    2.3155638    1732.5322    728.45106 
 1509000    300.71976   -10177.835            0     -10121.2    -2259.781    32.817902     34.22419    33.184438    2.3911263    1733.8009    727.23658 
 1510000    301.32096   -10177.772            0   -10121.024   -845.09938    32.817902     34.22419    33.184438    2.5382204    1735.1056     726.0371 
 1511000     311.5846    -10176.88            0   -10118.199   -1269.0647    32.817902     34.22419    33.184438    2.6827742    1736.3412    724.80862 
 1512000    305.14441   -10179.287            0   -10121.818   -1671.3032    32.817902     34.22419    33.184438    2.3105619    1737.6161    723.59649 
 1513000    299.80374   -10178.125            0   -10121.663   -1746.9348    32.817902     34.22419    33.184438    2.2654406    1738.8705    722.37578 
 1514000    311.80695   -10176.722            0   -10117.999   -765.23698    32.817902     34.22419    33.184438    2.2240493     1740.064     721.1298 
 1515000    294.23954   -10178.237            0   -10122.823   -1734.8218    32.817902     34.22419    33.184438    2.2883905    1741.2556    719.88305 
 1516000    306.40089   -10178.174            0   -10120.469   -2478.9639    32.817902     34.22419    33.184438    2.4621449    1742.4459    718.63588 
 1517000    304.40316   -10175.705            0   -10118.377   -1395.0773    32.817902     34.22419    33.184438    2.0554774    1743.6534    717.39584 
 1518000    290.02492   -10177.431            0    -10122.81   -2417.6965    32.817902     34.22419    33.184438    2.1317219    1744.8588    716.15502 
 1519000    301.78985   -10177.266            0   -10120.429   -2177.1266    32.817902     34.22419    33.184438    2.1742933    1746.0561    714.91092 
 1520000    313.84812   -10176.882            0   -10117.774    -1976.463    32.817902     34.22419    33.184438    2.6490209    1747.2829    713.67892 
 1521000    303.88379   -10177.965            0   -10120.734   -1405.0154    32.817902     34.22419    33.184438    2.7666994    1748.4499    712.42257 
 1522000    297.05885   -10178.434            0   -10122.488   -1614.0036    32.817902     34.22419    33.184438    2.4732679    1749.6306    711.17193 
 1523000    308.13475   -10176.401            0   -10118.369     -1846.97    32.817902     34.22419    33.184438    3.0510179    1750.8416    709.93368 
 1524000     298.1946   -10176.744            0   -10120.584   -1962.4542    32.817902     34.22419    33.184438    1.9448621    1752.0502    708.69446 
 1525000    297.19852   -10177.503            0   -10121.531   -2261.4567    32.817902     34.22419    33.184438    1.9768015    1753.2208    707.43998 
 1526000    295.81766   -10175.177            0   -10119.465   -2684.1679    32.817902     34.22419    33.184438    2.1468082     1754.414    706.19468 
 1527000      300.377    -10176.15            0   -10119.579   -1880.3526    32.817902     34.22419    33.184438    2.0242205    1755.6235    704.95605 
 1528000    295.55862    -10178.23            0   -10122.566    -2423.926    32.817902     34.22419    33.184438    1.9483378    1756.8206    703.71244 
 1529000    306.17399   -10176.735            0   -10119.073   -2278.9677    32.817902     34.22419    33.184438    2.8219317    1758.0183    702.46916 
 1530000    304.71067   -10180.218            0   -10122.832   -1836.9983    32.817902     34.22419    33.184438    2.8424816    1759.2177    701.22665 
 1531000    302.45729   -10179.215            0   -10122.252    -1398.415    32.817902     34.22419    33.184438    2.1433915    1760.4349    699.99125 
 1532000    288.55573   -10174.327            0   -10119.983   -1478.4203    32.817902     34.22419    33.184438    2.5550927    1761.6188    698.74266 
 1533000    293.95926   -10179.976            0   -10124.614   -2444.4676    32.817902     34.22419    33.184438    2.3967253    1762.8193    697.50071 
 1534000     293.4828   -10177.778            0   -10122.506    -1574.609    32.817902     34.22419    33.184438    2.4992869     1764.036    696.26527 
 1535000    299.76142   -10176.836            0   -10120.381   -2282.3156    32.817902     34.22419    33.184438     2.667372    1765.2612    695.03314 
 1536000    301.45742   -10179.061            0   -10122.287   -2059.6417    32.817902     34.22419    33.184438    2.3968518    1766.4444    693.78457 
 1537000    293.07265   -10178.404            0   -10123.209   -2593.9213    32.817902     34.22419    33.184438    2.7856365    1767.7167    692.57099 
 1538000    306.43769   -10177.676            0   -10119.964   -1875.9653    32.817902     34.22419    33.184438    2.5060583    1768.9556    691.34426 
 1539000    306.74024     -10179.3            0   -10121.531   -1498.9139    32.817902     34.22419    33.184438     2.307956    1770.2196    690.12731 
 1540000    299.59201   -10180.564            0   -10124.141   -2148.3163    32.817902     34.22419    33.184438    2.1302627    1771.5592    688.93967 
 1541000    305.09763   -10178.512            0   -10121.052   -1989.9448    32.817902     34.22419    33.184438    2.3482629    1772.7678    687.70106 
 1542000    307.51812    -10178.39            0   -10120.474   -2582.1919    32.817902     34.22419    33.184438    2.6704526    1774.0773     686.5015 
 1543000    290.50607   -10179.489            0   -10124.777   -1294.6833    32.817902     34.22419    33.184438    3.3440386    1775.4155    685.31286 
 1544000    295.35906   -10178.522            0   -10122.896   -1693.1192    32.817902     34.22419    33.184438    1.8678396    1776.7208    684.11135 
 1545000    304.43354   -10177.056            0   -10119.721   -2887.6489    32.817902     34.22419    33.184438    2.8317115     1778.014    682.90503 
 1546000    302.74231    -10177.68            0   -10120.664   -1924.1357    32.817902     34.22419    33.184438    2.2927968    1779.2984    681.69524 
 1547000    293.35361   -10178.208            0    -10122.96   -2421.7791    32.817902     34.22419    33.184438    2.9245484    1780.5479    680.47199 
 1548000    307.83213   -10177.853            0   -10119.878   -2058.7276    32.817902     34.22419    33.184438    2.2245967     1781.765    679.23637 
 1549000    298.60201   -10177.288            0   -10121.052   -2792.0839    32.817902     34.22419    33.184438    2.4936547    1783.0246    678.01696 
 1550000     300.2121   -10178.172            0   -10121.633    -2522.514    32.817902     34.22419    33.184438    2.1101181    1784.2235    676.77443 
 1551000    303.21187   -10177.037            0   -10119.933   -1911.7905    32.817902     34.22419    33.184438    2.6073446    1785.4235    675.53238 
 1552000    306.43429   -10177.036            0   -10119.324   -1694.9812    32.817902     34.22419    33.184438    2.2119742    1786.6705    674.30817 
 1553000    296.82257   -10178.857            0   -10122.956   -2382.4438    32.817902     34.22419    33.184438    2.2619668    1787.9077    673.08017 
 1554000    301.36125   -10176.098            0   -10119.342   -2440.3566    32.817902     34.22419    33.184438    2.5590973    1789.1084     671.8385 
 1555000     296.4438   -10175.847            0   -10120.017   -3052.1628    32.817902     34.22419    33.184438    3.6177943     1790.345    670.61031 
 1556000    293.95363   -10177.318            0   -10121.957   -2062.4271    32.817902     34.22419    33.184438    1.9010173    1791.5284    669.36224 
 1557000    305.66047   -10175.312            0   -10117.746   -2092.3514    32.817902     34.22419    33.184438     2.225284    1792.7778    668.13887 
 1558000    298.41159   -10176.422            0   -10120.221   -2025.5634    32.817902     34.22419    33.184438    2.1738854    1793.9545    666.88845 
 1559000    294.55629   -10177.075            0   -10121.601   -1465.5132    32.817902     34.22419    33.184438     2.189037     1795.156    665.64729 
 1560000    297.76566   -10177.549            0    -10121.47   -3037.1686    32.817902     34.22419    33.184438    1.9813903    1796.3597    664.40702 
 1561000    300.73405   -10175.438            0   -10118.801   -1316.0463    32.817902     34.22419    33.184438    2.3528322    1797.5676    663.16832 
 1562000    292.40299   -10177.512            0   -10122.443   -2183.7398    32.817902     34.22419    33.184438    3.4024878    1798.7847    661.93308 
 1563000    292.27916   -10176.894            0   -10121.849   -2211.4761    32.817902     34.22419    33.184438    2.2610102    1799.9831    660.69098 
 1564000    300.07197   -10176.737            0   -10120.224   -2145.7635    32.817902     34.22419    33.184438    2.1348074     1801.139    659.43342 
 1565000    303.11694   -10177.728            0   -10120.641   -2363.8544    32.817902     34.22419    33.184438    3.0366191    1802.3247    658.18685 
 1566000    294.13694   -10180.087            0   -10124.692   -3133.8874    32.817902     34.22419    33.184438    2.1416239    1803.5205    656.94402 
 1567000     295.6352   -10177.559            0   -10121.881      -2384.5    32.817902     34.22419    33.184438     2.308487     1804.708    655.69826 
 1568000     295.2659   -10175.539            0   -10119.931   -1531.2195    32.817902     34.22419    33.184438    2.5568263    1805.9414    654.46922 
 1569000    300.68767   -10176.359            0    -10119.73   -1573.4808    32.817902     34.22419    33.184438    2.2217622    1807.2449    653.26553 
 1570000    289.07554   -10177.673            0   -10123.231   -1594.9383    32.817902     34.22419    33.184438    2.4437712    1808.5193    652.05117 
 1571000    299.23975   -10175.425            0   -10119.068   -2523.7058    32.817902     34.22419    33.184438    2.6797628    1809.8407    650.85367 
 1572000    303.16883   -10177.081            0   -10119.985   -1978.5212    32.817902     34.22419    33.184438     2.322926     1811.086    649.62868 
 1573000    293.40932   -10178.012            0   -10122.754   -2596.2807    32.817902     34.22419    33.184438    2.2639527    1812.2852    648.38717 
 1574000    296.78428   -10179.529            0   -10123.635   -2220.5126    32.817902     34.22419    33.184438    2.7009587    1813.4886    647.14723 
 1575000    299.60027   -10176.079            0   -10119.654    -1987.116    32.817902     34.22419    33.184438    2.5713112     1814.766    645.93365 
 1576000    295.41104   -10178.241            0   -10122.605   -3025.4167    32.817902     34.22419    33.184438    2.3826509    1816.0163    644.71039 
 1577000    300.03642   -10179.972            0   -10123.465   -3173.0664    32.817902     34.22419    33.184438     1.900429    1817.2899    643.49533 
 1578000     304.0648   -10178.342            0   -10121.077   -2661.7658    32.817902     34.22419    33.184438    2.2764233    1818.5306     642.2686 
 1579000    303.21797   -10176.779            0   -10119.674   -1867.6698    32.817902     34.22419    33.184438    2.4610244     1819.797    641.05086 
 1580000    289.48577    -10178.53            0    -10124.01    -2171.585    32.817902     34.22419    33.184438    2.4844535    1821.0468    639.82727 
 1581000    309.14036   -10179.518            0   -10121.297   -1744.8364    32.817902     34.22419    33.184438    1.9907173    1822.2223    638.57755 
 1582000    302.84564   -10177.385            0   -10120.349   -2359.7405    32.817902     34.22419    33.184438    2.3206944    1823.4698    637.35314 
 1583000    296.34771   -10177.631            0   -10121.819   -2816.4064    32.817902     34.22419    33.184438    2.2486172    1824.7134    636.12734 
 1584000    291.60881   -10177.911            0   -10122.992   -2393.5944    32.817902     34.22419    33.184438    2.2629127     1825.896    634.88029 
 1585000    307.97707   -10177.758            0   -10119.756   -2122.2479    32.817902     34.22419    33.184438    2.2844709     1827.072    633.63103 
 1586000    296.50198   -10178.184            0   -10122.343   -1729.7068    32.817902     34.22419    33.184438    2.3252892     1828.278    632.39227 
 1587000    309.15352   -10177.592            0   -10119.369   -2428.3524    32.817902     34.22419    33.184438    2.5404024    1829.4759    631.15071 
 1588000    311.26672   -10178.807            0   -10120.186   -3091.9771    32.817902     34.22419    33.184438    1.9376997    1830.7648    629.94056 
 1589000    294.20694   -10178.035            0   -10122.626   -2042.5309    32.817902     34.22419    33.184438    2.3995206     1831.985    628.70674 
 1590000    310.06503   -10177.014            0   -10118.619   -1519.7183    32.817902     34.22419    33.184438    2.2041618    1833.1692    627.46061 
 1591000     302.6961   -10176.622            0   -10119.615   -1636.5833    32.817902     34.22419    33.184438    2.3689271    1834.3263    626.20528 
 1592000    298.39113   -10177.794            0   -10121.598   -2119.5229    32.817902     34.22419    33.184438    2.3502699    1835.4996    624.95563 
 1593000    300.85377   -10179.482            0   -10122.821   -2344.3661    32.817902     34.22419    33.184438    1.7871874     1836.726     623.7241 
 1594000    291.47302   -10176.447            0   -10121.553   -1079.4353    32.817902     34.22419    33.184438    2.5018573    1837.9028    622.47578 
 1595000     303.7327   -10176.591            0   -10119.388    -2007.961    32.817902     34.22419    33.184438    2.2373733    1839.0887    621.23063 
 1596000    297.88271   -10179.726            0   -10123.626   -1982.0803    32.817902     34.22419    33.184438    2.2054054     1840.358    620.01365 
 1597000    308.24433   -10179.175            0   -10121.123   -2141.6812    32.817902     34.22419    33.184438    2.7012387    1841.5518    618.77125 
 1598000    297.92606   -10176.237            0   -10120.128   -938.86405    32.817902     34.22419    33.184438    3.0439505    1842.7592    617.53346 
 1599000     289.7014   -10178.646            0   -10124.086   -1952.0286    32.817902     34.22419    33.184438    2.6276243     1843.947    616.28917 
 1600000    302.44399   -10177.362            0   -10120.402   -1397.4623    32.817902     34.22419    33.184438    1.9373933    1845.2358    615.07861 
 1601000    301.79512   -10177.931            0   -10121.093   -2670.7068    32.817902     34.22419    33.184438    2.5431494    1846.4542    613.84454 
 1602000    284.70422   -10179.977            0   -10126.358   -2094.3077    32.817902     34.22419    33.184438    2.3651411    1847.7672    612.64185 
 1603000    291.34638   -10178.065            0   -10123.196   -2318.0164    32.817902     34.22419    33.184438    2.0337964    1849.0601    611.43238 
 1604000    305.47562   -10178.136            0   -10120.605   -1907.9381    32.817902     34.22419    33.184438    2.5562728    1850.3177    610.21117 
 1605000    305.54507   -10179.172            0   -10121.628   -1851.7976    32.817902     34.22419    33.184438    1.9312448    1851.5245    608.97318 
 1606000    290.95872   -10178.946            0   -10124.149   -2173.3712    32.817902     34.22419    33.184438    3.3658297    1852.7128    607.72917 
 1607000    298.80794   -10176.423            0   -10120.147   -2655.2941    32.817902     34.22419    33.184438    2.9426168    1853.9588    606.50411 
 1608000    300.98113   -10178.305            0   -10121.621   -1615.6225    32.817902     34.22419    33.184438    2.3103598    1855.2316    605.28777 
 1609000    285.00618   -10179.544            0   -10125.868   -1628.1445    32.817902     34.22419    33.184438    2.2017583    1856.5652    604.09112 
 1610000    295.46268   -10177.532            0   -10121.887   -1799.6291    32.817902     34.22419    33.184438    2.6222967     1857.909    602.89762 
 1611000    297.29636     -10176.5            0   -10120.509   -2414.5532    32.817902     34.22419    33.184438    2.2970083    1859.2083    601.68951 
 1612000    291.78133   -10177.053            0   -10122.101   -1483.4104    32.817902     34.22419    33.184438    2.2810259     1860.388     600.4427 
 1613000    300.49667    -10180.26            0   -10123.667   -1532.4875    32.817902     34.22419    33.184438    2.1776144    1861.5636    599.19461 
 1614000    313.66458   -10178.812            0   -10119.739   -1784.9815    32.817902     34.22419    33.184438    2.8311843      1862.74    597.94691 
 1615000    296.61099   -10178.228            0   -10122.367   -1551.7709    32.817902     34.22419    33.184438    2.5921376    1863.9342      596.705 
 1616000    295.99554   -10179.879            0   -10124.134   -1372.4757    32.817902     34.22419    33.184438    2.3336694    1865.2015    595.48648 
 1617000    300.22147   -10176.411            0    -10119.87     -779.645    32.817902     34.22419    33.184438    2.0283652    1866.4212    594.25275 
 1618000    298.45492   -10177.924            0   -10121.715   -1438.2274    32.817902     34.22419    33.184438    2.1707865     1867.568    592.99591 
 1619000    293.94059   -10178.728            0    -10123.37   -2475.5988    32.817902     34.22419    33.184438    1.8980039    1868.7559     591.7522 
 1620000     298.2508   -10177.732            0   -10121.562   -1160.0715    32.817902     34.22419    33.184438    1.9983337    1869.9599    590.51366 
 1621000     293.5712    -10177.66            0   -10122.372   -1494.7532    32.817902     34.22419    33.184438    1.9899873    1871.1453    589.26928 
 1622000    291.56858   -10179.785            0   -10124.873   -1683.6457    32.817902     34.22419    33.184438    2.5944477    1872.3556    588.03283 
 1623000    303.04695   -10178.151            0   -10121.077   -1072.4531    32.817902     34.22419    33.184438    2.8189106    1873.5257    586.78382 
 1624000    301.62948   -10178.478            0   -10121.672   -537.05132    32.817902     34.22419    33.184438    2.3650073    1874.7299    585.54557 
 1625000    300.73467   -10181.274            0   -10124.636   -1529.6181    32.817902     34.22419    33.184438    2.6670021    1875.9482    584.31174 
 1626000    296.52296   -10177.426            0   -10121.582   -1423.6899    32.817902     34.22419    33.184438    2.3003467     1877.135    583.06814 
 1627000    292.36034   -10176.844            0   -10121.783   -1713.9386    32.817902     34.22419    33.184438    2.1756177    1878.3418    581.83084 
 1628000    287.74483   -10177.861            0   -10123.669   -1784.9989    32.817902     34.22419    33.184438    1.9323152    1879.5339      580.589 
 1629000    295.91015   -10177.336            0   -10121.607   -1503.5416    32.817902     34.22419    33.184438    2.4734259    1880.7674       579.36 
 1630000    302.43916   -10177.116            0   -10120.157   -1699.3679    32.817902     34.22419    33.184438    2.1910492    1881.9729    578.12239 
 1631000    290.29272   -10178.415            0   -10123.744   -1253.6086    32.817902     34.22419    33.184438    2.3120778    1883.1846    576.88674 
 1632000    280.45373   -10179.136            0   -10126.318   -1914.9484    32.817902     34.22419    33.184438    2.1523889    1884.3805    575.64627 
 1633000    304.82826   -10178.606            0   -10121.197   -902.09925    32.817902     34.22419    33.184438    2.4188389    1885.5828     574.4078 
 1634000    298.97137   -10176.536            0    -10120.23   -1236.1173    32.817902     34.22419    33.184438    1.8216919    1886.8388     573.1857 
 1635000    296.88336   -10180.241            0   -10124.329   -1431.4798    32.817902     34.22419    33.184438    2.1622994    1888.1817     571.9899 
 1636000     304.4444   -10179.033            0   -10121.697   -3019.9257    32.817902     34.22419    33.184438    2.4684307    1889.4181    570.76173 
 1637000    296.09517    -10176.84            0   -10121.076   -2065.8294    32.817902     34.22419    33.184438    2.6601097    1890.6805    569.54135 
 1638000    294.87233   -10178.968            0   -10123.434   -2721.2298    32.817902     34.22419    33.184438      2.81498    1891.9155    568.31272 
 1639000    298.86504   -10180.768            0   -10124.482   -2073.3231    32.817902     34.22419    33.184438    2.2581599    1893.1013    567.06932 
 1640000    308.04019   -10178.268            0   -10120.254   -944.45748    32.817902     34.22419    33.184438    2.5573154    1894.3948    565.85818 
 1641000    293.70947     -10178.3            0   -10122.985   -2465.9851    32.817902     34.22419    33.184438    2.4572937    1895.6542    564.63677 
 1642000    280.45527   -10177.524            0   -10124.705   -2434.3212    32.817902     34.22419    33.184438    2.1681903    1896.9316    563.42066 
 1643000    310.02804   -10178.269            0   -10119.881    -2563.513    32.817902     34.22419    33.184438    2.0842132    1898.2252    562.20927 
 1644000    298.09108   -10178.405            0   -10122.265   -1525.5203    32.817902     34.22419    33.184438    2.5823149    1899.5115    560.99562 
 1645000     300.3529   -10180.271            0   -10123.705   -2088.0479    32.817902     34.22419    33.184438    2.4567125     1900.735    559.76337 
 1646000    301.80479   -10176.249            0    -10119.41   -1633.8379    32.817902     34.22419    33.184438    2.6536748     1901.941    558.52601 
 1647000    290.90598   -10177.741            0   -10122.954   -1748.8813    32.817902     34.22419    33.184438    2.6637304    1903.1756    557.29705 
 1648000    298.59572    -10178.24            0   -10122.005    -1895.176    32.817902     34.22419    33.184438    2.4338092    1904.4105    556.06817 
 1649000    309.10126   -10176.081            0   -10117.867   -2068.4333    32.817902     34.22419    33.184438    2.1274691    1905.5769    554.81935 
 1650000    300.37321   -10178.044            0   -10121.474   -2146.2404    32.817902     34.22419    33.184438    2.2371113    1906.7968    553.58616 
 1651000    301.32067   -10178.941            0   -10122.193    -2141.834    32.817902     34.22419    33.184438    2.4806076    1907.9949     552.3467 
 1652000    301.15027   -10174.782            0   -10118.066   -1636.7975    32.817902     34.22419    33.184438    2.4778248    1909.1846    551.10484 
 1653000    297.90713   -10177.246            0   -10121.141   -2615.0648    32.817902     34.22419    33.184438    2.0321364    1910.3638    549.86003 
 1654000    291.13902   -10176.326            0   -10121.495   -2440.8153    32.817902     34.22419    33.184438    2.8757499    1911.5995    548.63151 
 1655000    315.02134   -10177.754            0   -10118.426     -2247.02    32.817902     34.22419    33.184438    2.3487891    1912.8754    547.41451 
 1656000      304.167   -10176.664            0   -10119.379   -443.89215    32.817902     34.22419    33.184438    2.2490571    1914.0302    546.16286 
 1657000    302.53244   -10179.345            0   -10122.368    -2156.824    32.817902     34.22419    33.184438    2.1481949    1915.2052    544.91709 
 1658000    308.52037   -10178.748            0   -10120.643   -3022.0275    32.817902     34.22419    33.184438    2.5522816    1916.3629    543.66651 
 1659000    308.69603   -10177.369            0   -10119.231   -1492.2995    32.817902     34.22419    33.184438    2.5297227    1917.5917    542.43614 
 1660000     303.5284   -10178.936            0   -10121.772   -1365.1354    32.817902     34.22419    33.184438    2.4002944    1918.7962    541.19892 
 1661000    297.88519   -10177.633            0   -10121.532   -1461.4968    32.817902     34.22419    33.184438    2.3255013    1919.9725    539.95384 
 1662000    303.48302   -10175.726            0   -10118.571   -1816.2989    32.817902     34.22419    33.184438    2.1360718    1921.1816    538.71802 
 1663000    302.23561   -10179.268            0   -10122.347   -2322.5851    32.817902     34.22419    33.184438    2.7103693    1922.4097    537.48755 
 1664000    297.24237    -10178.01            0    -10122.03   -2399.5664    32.817902     34.22419    33.184438    2.7146165    1923.6051    536.24796 
 1665000    305.35453   -10176.827            0   -10119.318   -1318.1676    32.817902     34.22419    33.184438    2.4970739     1924.881    535.03083 
 1666000    297.58125    -10179.96            0   -10123.916   -1999.7298    32.817902     34.22419    33.184438    2.3797177    1926.1489    533.81137 
 1667000      305.429   -10178.042            0    -10120.52   -1768.6595    32.817902     34.22419    33.184438    2.2617357    1927.4202    532.59283 
 1668000    304.66902   -10178.131            0   -10120.752   -2404.6877    32.817902     34.22419    33.184438    2.2163725     1928.705    531.37791 
 1669000     303.4275   -10181.968            0   -10124.823   -1651.4523    32.817902     34.22419    33.184438    2.5637194    1930.0283     530.1735 
 1670000    305.11534   -10179.303            0    -10121.84   -2245.3429    32.817902     34.22419    33.184438     2.239833    1931.3127    528.95827 
 1671000    310.01607   -10178.279            0   -10119.893   -1475.4656    32.817902     34.22419    33.184438    2.5627437    1932.5302    527.72467 
 1672000    290.50231   -10178.792            0   -10124.081   -1823.9083    32.817902     34.22419    33.184438    2.5823728    1933.7697    526.49709 
 1673000    299.92852    -10178.23            0   -10121.743   -2007.3811    32.817902     34.22419    33.184438    2.2683884    1935.0712    525.28634 
 1674000    307.56197   -10178.813            0   -10120.889   -1562.8669    32.817902     34.22419    33.184438    2.1686171    1936.4202    524.08832 
 1675000     294.8825    -10177.69            0   -10122.154   -1119.4283    32.817902     34.22419    33.184438    2.2378647    1937.6928    522.86948 
 1676000    298.92013   -10180.159            0   -10123.863   -1824.4817    32.817902     34.22419    33.184438    2.0203795    1938.9732     521.6527 
 1677000     304.5904   -10177.066            0   -10119.702   -1624.1408    32.817902     34.22419    33.184438     2.302939    1940.2285    520.42908 
 1678000    303.50575   -10178.276            0   -10121.116   -2609.2903    32.817902     34.22419    33.184438    2.0585494    1941.4053    519.18443 
 1679000    297.07308   -10177.965            0   -10122.017   -1738.9311    32.817902     34.22419    33.184438    2.8745963    1942.6052    517.94603 
 1680000    302.17724    -10178.51            0   -10121.601   -1670.0968    32.817902     34.22419    33.184438    2.3796243    1943.8231    516.71247 
 1681000    308.04954    -10177.29            0   -10119.274   -2343.2122    32.817902     34.22419    33.184438    2.3869356      1945.04    515.47865 
 1682000    292.06376   -10177.171            0   -10122.166   -2249.2567    32.817902     34.22419    33.184438    2.3208088    1946.2282    514.23728 
 1683000    304.06575   -10179.717            0   -10122.452   -1770.7985    32.817902     34.22419    33.184438     2.070773    1947.4112    512.99461 
 1684000    321.27987   -10178.118            0   -10117.611   -2465.4512    32.817902     34.22419    33.184438    2.5118646    1948.6182    511.75831 
 1685000     305.7033   -10175.381            0   -10117.807   -2041.3087    32.817902     34.22419    33.184438    2.1996405    1949.8218    510.52116 
 1686000    303.71306   -10179.016            0   -10121.818   -1367.3485    32.817902     34.22419    33.184438    2.3838542    1951.0415    509.28827 
 1687000    294.19619   -10178.007            0     -10122.6     -1791.92    32.817902     34.22419    33.184438      2.76759    1952.2471     508.0517 
 1688000    309.07048   -10176.638            0    -10118.43     -2033.78    32.817902     34.22419    33.184438    2.3875991    1953.4212    506.80701 
 1689000     310.1362   -10180.261            0   -10121.852   -1594.8855    32.817902     34.22419    33.184438    2.5351799    1954.6282    505.57092 
 1690000    305.85425   -10179.367            0   -10121.765   -2442.1589    32.817902     34.22419    33.184438    2.5261708     1955.816    504.32991 
 1691000    314.09521   -10177.312            0   -10118.158   -1482.9891    32.817902     34.22419    33.184438    2.6448196    1957.0307    503.09588 
 1692000    295.31791   -10176.757            0   -10121.139   -3310.1364    32.817902     34.22419    33.184438    2.3975923    1958.2285    501.85757 
 1693000    290.19299   -10176.694            0   -10122.041   -2237.5824    32.817902     34.22419    33.184438    2.8684835    1959.4211    500.61796 
 1694000     307.7401    -10176.82            0   -10118.862   -1307.9051    32.817902     34.22419    33.184438    2.3783361    1960.6158    499.37894 
 1695000    293.45432   -10178.034            0   -10122.767   -1902.8172    32.817902     34.22419    33.184438    2.1776891    1961.8127    498.14052 
 1696000    301.74639   -10178.395            0   -10121.566   -2747.1152    32.817902     34.22419    33.184438    2.2102298    1963.0111    496.90255 
 1697000    298.34252   -10175.547            0   -10119.359   -2166.0688    32.817902     34.22419    33.184438    2.3451355    1964.2267    495.66899 
 1698000    292.31568   -10176.012            0    -10120.96   -2578.9513    32.817902     34.22419    33.184438    2.1644184    1965.4506     494.4375 
 1699000    301.30592   -10179.315            0   -10122.569   -1302.2646    32.817902     34.22419    33.184438    2.0025703    1966.7138    493.21591 
 1700000    292.13687   -10180.142            0   -10125.124   -1887.4622    32.817902     34.22419    33.184438    2.4658052    1967.9691    491.99229 
 1701000    294.46459   -10176.406            0   -10120.949   -2688.3828    32.817902     34.22419    33.184438     2.345618    1969.2323    490.77057 
 1702000    302.60854   -10178.145            0   -10121.154   -1154.5478    32.817902     34.22419    33.184438    2.3915165    1970.5271    489.55668 
 1703000    292.91106   -10179.971            0   -10124.806   -1366.0388    32.817902     34.22419    33.184438    2.0856458     1971.797     488.3365 
 1704000    297.45176   -10176.457            0   -10120.437   -1864.0488    32.817902     34.22419    33.184438    2.1741399    1973.0141    487.10324 
 1705000    301.05197   -10178.241            0   -10121.544   -986.68194    32.817902     34.22419    33.184438    2.4981199    1974.2539    485.87556 
 1706000     296.8124   -10180.638            0   -10124.739   -2422.1295    32.817902     34.22419    33.184438    2.3774086    1975.5458    484.66068 
 1707000    301.29581   -10177.383            0    -10120.64   -1022.3212    32.817902     34.22419    33.184438    2.9664557    1976.8123    483.43948 
 1708000    301.62968   -10177.833            0   -10121.026   -1981.7521    32.817902     34.22419    33.184438    2.7498096    1978.1873    482.24467 
 1709000     285.5397   -10177.995            0   -10124.219   -1496.8615    32.817902     34.22419    33.184438    2.2266135    1979.4215    481.01543 
 1710000    303.40547     -10178.7            0   -10121.559   -1556.6242    32.817902     34.22419    33.184438    2.3328202    1980.6341    479.78093 
 1711000    298.66876   -10176.369            0    -10120.12   -1463.3298    32.817902     34.22419    33.184438    2.1601258    1981.8083     478.5372 
 1712000    296.53134   -10180.148            0   -10124.301   -2112.0309    32.817902     34.22419    33.184438    2.9430077    1983.0238     477.3035 
 1713000    295.87869    -10177.81            0   -10122.087   -1958.4803    32.817902     34.22419    33.184438    2.0238651    1984.2299    476.06757 
 1714000    298.14119   -10177.719            0    -10121.57   -2113.4087    32.817902     34.22419    33.184438    2.4758211    1985.4445     474.8337 
 1715000    303.79088   -10178.376            0   -10121.162   -2166.8467    32.817902     34.22419    33.184438    2.1068172    1986.6304    473.59301 
 1716000    292.40456   -10177.721            0   -10122.652   -1349.5159    32.817902     34.22419    33.184438    2.0978659    1987.8176     472.3527 
 1717000    301.74341   -10179.226            0   -10122.398   -1213.2994    32.817902     34.22419    33.184438    2.2306305    1989.0464    471.12231 
 1718000    312.09114   -10177.839            0   -10119.062    -2115.908    32.817902     34.22419    33.184438    2.2952873    1990.2428    469.88428 
 1719000    293.59206   -10177.372            0   -10122.079   -1356.4946    32.817902     34.22419    33.184438     2.380611    1991.4808    468.65608 
 1720000    297.64707   -10177.712            0   -10121.656   -1692.2309    32.817902     34.22419    33.184438    2.7120617    1992.6633    467.41485 
 1721000    303.26542   -10176.205            0   -10119.091    -2018.232    32.817902     34.22419    33.184438    2.4252065    1993.8722    466.17986 
 1722000    312.20064   -10174.699            0   -10115.901   -1464.0902    32.817902     34.22419    33.184438    2.6727073    1995.0854    464.94593 
 1723000    290.36885   -10175.906            0    -10121.22   -2046.8977    32.817902     34.22419    33.184438    2.4711531    1996.3348    463.72042 
 1724000    295.49522   -10178.039            0   -10122.388   -1710.5175    32.817902     34.22419    33.184438    2.5892549    1997.5348    462.48344 
 1725000    308.87694   -10176.757            0   -10118.586   -1005.9741    32.817902     34.22419    33.184438    2.5006341     1998.729    461.24515 
 1726000    304.41878    -10179.51            0   -10122.178   -3092.4189    32.817902     34.22419    33.184438     2.283932    1999.9294    460.00835 
 1727000    298.82494   -10178.051            0   -10121.773   -1989.8852    32.817902     34.22419    33.184438    2.7220495    2001.1352    458.77286 
 1728000    310.27418   -10177.354            0    -10118.92   -2047.0366    32.817902     34.22419    33.184438    2.2825949    2002.3114    457.53061 
 1729000    298.94837   -10178.276            0   -10121.974   -2175.9579    32.817902     34.22419    33.184438    1.8895007    2003.5486    456.30235 
 1730000    299.67725   -10178.347            0   -10121.908    -2322.054    32.817902     34.22419    33.184438    2.6641711    2004.8035    455.07809 
 1731000    303.07033    -10176.38            0   -10119.302   -1478.6509    32.817902     34.22419    33.184438    2.1410843    2006.0427    453.85025 
 1732000    304.92293   -10178.315            0   -10120.888   -2013.7971    32.817902     34.22419    33.184438      2.58713    2007.3055    452.62772 
 1733000    301.19046     -10179.1            0   -10122.376   -2487.9806    32.817902     34.22419    33.184438    2.1823269    2008.5591    451.40306 
 1734000    285.36982    -10177.44            0   -10123.696   -2204.3521    32.817902     34.22419    33.184438     2.245955    2009.8437     450.1853 
 1735000    300.97526   -10176.643            0    -10119.96   -2142.1122    32.817902     34.22419    33.184438     2.260523    2011.1488    448.97206 
 1736000    299.53071   -10178.717            0   -10122.306   -2025.1168    32.817902     34.22419    33.184438    2.1817611    2012.4065    447.74814 
 1737000    302.62655    -10180.84            0   -10123.846    -2081.888    32.817902     34.22419    33.184438    2.5321533    2013.6923    446.53043 
 1738000    296.02864   -10177.226            0   -10121.475   -1189.3013    32.817902     34.22419    33.184438    2.3938953    2014.9636    445.30941 
 1739000    302.12793   -10178.609            0   -10121.708   -2187.5835    32.817902     34.22419    33.184438    2.4696337    2016.2723    444.09659 
 1740000    295.25131   -10179.507            0   -10123.902   -2710.5058    32.817902     34.22419    33.184438    2.0707157     2017.547    442.87618 
 1741000    298.87926   -10176.123            0   -10119.834   -2264.0121    32.817902     34.22419    33.184438    2.2317001    2018.8301    441.65753 
 1742000    301.28038   -10177.555            0   -10120.814   -1131.7578    32.817902     34.22419    33.184438    2.7890818    2020.0406    440.42297 
 1743000    291.22995   -10180.117            0   -10125.269   -2479.7648    32.817902     34.22419    33.184438    2.3843895    2021.2449    439.18712 
 1744000     288.1758   -10179.218            0   -10124.945   -1883.2709    32.817902     34.22419    33.184438    2.2863768    2022.4954    437.96129 
 1745000    305.03122   -10178.526            0   -10121.078   -2319.8602    32.817902     34.22419    33.184438    1.9385177    2023.7143    436.72862 
 1746000    304.90489   -10177.547            0   -10120.123   -3427.4108    32.817902     34.22419    33.184438     2.271853    2024.9201    435.49314 
 1747000    294.85421   -10179.742            0   -10124.212   -2567.7389    32.817902     34.22419    33.184438     2.544791     2026.187     434.2708 
 1748000    307.47685   -10179.463            0   -10121.556   -1880.6942    32.817902     34.22419    33.184438    2.1798336    2027.3965    433.03615 
 1749000    302.74895   -10178.276            0   -10121.259   -2309.4986    32.817902     34.22419    33.184438     2.411469    2028.5854    431.79714 
 1750000    305.82952   -10177.262            0   -10119.665   -2109.1695    32.817902     34.22419    33.184438    2.2519325    2029.8176    430.56737 
 1751000    315.61287   -10178.653            0   -10119.213   -3329.9995    32.817902     34.22419    33.184438    2.4333157    2031.0249    429.33235 
 1752000    298.72621   -10178.376            0   -10122.116   -1358.6276    32.817902     34.22419    33.184438    2.1958659    2032.3062    428.11292 
 1753000    296.86385   -10175.788            0   -10119.879   -2369.6737    32.817902     34.22419    33.184438    2.4291216    2033.5026    426.87562 
 1754000     304.1489   -10174.649            0   -10117.368   -1716.7563    32.817902     34.22419    33.184438     2.533517    2034.6897    425.63642 
 1755000    296.99295   -10176.705            0   -10120.772   -2367.9232    32.817902     34.22419    33.184438      2.43755    2035.8681    424.39547 
 1756000    292.52818   -10177.833            0   -10122.741   -2198.8618    32.817902     34.22419    33.184438    2.4995414    2037.0702    423.15951 
 1757000    306.38717   -10177.298            0   -10119.596   -2447.8505    32.817902     34.22419    33.184438    2.3973538    2038.2569    421.92041 
 1758000    296.69653   -10176.319            0   -10120.441   -2278.0548    32.817902     34.22419    33.184438    2.6212898    2039.4553    420.68377 
 1759000     298.8362   -10178.447            0   -10122.166   -2890.4442    32.817902     34.22419    33.184438    2.2608607    2040.6417    419.44474 
 1760000    300.36059   -10177.422            0   -10120.854   -1888.6124    32.817902     34.22419    33.184438    2.6250814    2041.8224    418.20459 
 1761000    306.74642   -10175.891            0   -10118.121   -2093.3228    32.817902     34.22419    33.184438    3.0546345    2043.0553    416.97517 
 1762000    300.55907   -10178.672            0   -10122.067   -2444.8222    32.817902     34.22419    33.184438    2.2137488     2044.233    415.73451 
 1763000    301.57508   -10178.443            0   -10121.647   -1635.1204    32.817902     34.22419    33.184438    2.6569077     2045.442    414.50027 
 1764000    310.29323   -10176.129            0   -10117.691   -1035.6831    32.817902     34.22419    33.184438     2.326962    2046.6979    413.27553 
 1765000    307.50123   -10178.502            0    -10120.59   -1618.3658    32.817902     34.22419    33.184438    2.6259284    2047.9639    412.05279 
 1766000    299.55558    -10178.74            0   -10122.324   -1343.8343    32.817902     34.22419    33.184438    2.2687774    2049.2383    410.83169 
 1767000     310.4485   -10176.179            0   -10117.712   -2188.2841    32.817902     34.22419    33.184438    2.8002887     2050.552    409.61837 
 1768000    294.72472   -10176.143            0   -10120.637   -1781.0851    32.817902     34.22419    33.184438    2.4744877    2051.7926    408.39037 
 1769000    291.17569   -10176.497            0    -10121.66   -1489.9291    32.817902     34.22419    33.184438    2.8084781    2053.0461    407.16492 
 1770000    302.41062   -10176.285            0   -10119.332   -1941.3323    32.817902     34.22419    33.184438    2.2935407    2054.3225    405.94397 
 1771000     313.1976   -10179.272            0   -10120.286   -2533.5594    32.817902     34.22419    33.184438    2.2107579    2055.6058     404.7243 
 1772000    303.19798    -10179.59            0   -10122.488   -1819.4202    32.817902     34.22419    33.184438    2.6441691    2056.9042    403.50752 
 1773000    297.02911   -10175.934            0   -10119.994   -1397.4557    32.817902     34.22419    33.184438     2.497659    2058.2185    402.29375 
 1774000    294.94593   -10172.314            0   -10116.767   -1940.0299    32.817902     34.22419    33.184438    2.6209876    2059.5001    401.07349 
 1775000    293.14639   -10176.151            0   -10120.943   -1583.0809    32.817902     34.22419    33.184438     2.531864    2060.6878    399.83495 
 1776000    301.16123    -10179.12            0   -10122.401   -1796.3078    32.817902     34.22419    33.184438    2.5279686    2061.8887    398.59901 
 1777000    304.66996   -10175.337            0   -10117.958   -1793.6035    32.817902     34.22419    33.184438    2.2049514     2063.106    397.36626 
 1778000    296.53073   -10176.864            0   -10121.018   -2098.6804    32.817902     34.22419    33.184438    2.5516313    2064.3123    396.13143 
 1779000    297.52288   -10177.441            0   -10121.407   -1181.4844    32.817902     34.22419    33.184438    2.0934776    2065.5299    394.89881 
 1780000    303.64045   -10177.174            0   -10119.989   -2018.2267    32.817902     34.22419    33.184438    2.1584766    2066.7481     393.6663 
 1781000    304.68821   -10176.381            0   -10118.999   -2057.4323    32.817902     34.22419    33.184438    2.1759995    2067.9143    392.42396 
 1782000    304.96495   -10180.144            0   -10122.709   -1605.6209    32.817902     34.22419    33.184438    2.1218186    2069.0953    391.18448 
 1783000    305.39769   -10177.549            0   -10120.033    -923.1315    32.817902     34.22419    33.184438    2.4145632    2070.3057    389.95063 
 1784000    306.66941   -10176.963            0   -10119.207   -1322.5816    32.817902     34.22419    33.184438    2.1557172     2071.516    388.71679 
 1785000    303.26245   -10178.616            0   -10121.502   -1415.0817    32.817902     34.22419    33.184438    2.5298643    2072.6655    387.47159 
 1786000    295.53824   -10176.848            0   -10121.189   -1707.7898    32.817902     34.22419    33.184438    2.9468312    2073.8742    386.23754 
 1787000    309.19773   -10176.049            0   -10117.817   -2424.7846    32.817902     34.22419    33.184438    2.6536441    2075.0909    385.00501 
 1788000    290.70925   -10176.629            0   -10121.879   -1614.9733    32.817902     34.22419    33.184438    2.2038414    2076.3222     383.7752 
 1789000    305.74143   -10179.101            0    -10121.52   -2302.3053    32.817902     34.22419    33.184438    2.0864294     2077.482    382.53221 
 1790000    308.34193   -10175.787            0   -10117.716    -1169.067    32.817902     34.22419    33.184438    2.3607744     2078.701    381.30018 
 1791000    293.81466   -10177.289            0   -10121.955   -2045.8907    32.817902     34.22419    33.184438    2.2993457    2079.8694    380.05893 
 1792000    306.68594    -10179.41            0   -10121.651   -2041.0243    32.817902     34.22419    33.184438    2.1954856    2081.1103    378.83096 
 1793000    304.51124   -10175.708            0   -10118.359   -1363.2648    32.817902     34.22419    33.184438    2.1314144    2082.2991    377.59352 
 1794000    298.29154   -10177.626            0   -10121.448    -1512.961    32.817902     34.22419    33.184438    2.7700218    2083.4951    376.35745 
 1795000    295.91082   -10177.835            0   -10122.105    -1148.182    32.817902     34.22419    33.184438     2.316443    2084.6824    375.11984 
 1796000    306.84581   -10176.056            0   -10118.267   -1146.7106    32.817902     34.22419    33.184438     2.054209    2085.9104    373.88961 
 1797000    287.87873   -10176.727            0    -10122.51   -2051.7011    32.817902     34.22419    33.184438    2.3355883    2087.1403     372.6597 
 1798000    300.76462   -10179.076            0   -10122.432     -2055.22    32.817902     34.22419    33.184438    2.6647812     2088.404    371.43581 
 1799000    296.25165   -10175.148            0   -10119.354   -1424.3821    32.817902     34.22419    33.184438    2.3785236    2089.6837     370.2147 
 1800000    284.22971   -10177.013            0   -10123.483   -3019.4819    32.817902     34.22419    33.184438    2.7852038    2090.9933    368.99881 
 1801000    297.74141   -10178.705            0   -10122.631   -2459.5834    32.817902     34.22419    33.184438    2.1773764    2092.2442    367.77249 
 1802000    309.95015   -10178.181            0   -10119.808   -1674.5668    32.817902     34.22419    33.184438     2.401117    2093.5817    366.56131 
 1803000    292.30338   -10179.115            0   -10124.065    -2544.036    32.817902     34.22419    33.184438    2.1989846    2094.8658    365.34065 
 1804000    294.66093   -10177.761            0   -10122.267   -2053.2274    32.817902     34.22419    33.184438    2.5322095    2096.1551    364.12084 
 1805000    303.61314   -10177.625            0   -10120.445   -1300.2951    32.817902     34.22419    33.184438     2.298678    2097.4422    362.90056 
 1806000    298.27876   -10178.869            0   -10122.693   -1021.3227    32.817902     34.22419    33.184438    2.1356354    2098.7552    361.68466 
 1807000    301.22357   -10179.619            0   -10122.889   -1614.4142    32.817902     34.22419    33.184438    2.5144974     2099.977      360.453 
 1808000    303.38954   -10177.258            0    -10120.12   -2189.6086    32.817902     34.22419    33.184438    2.0313986    2101.2023    359.22194 
 1809000    296.70659   -10177.941            0   -10122.062   -2038.5449    32.817902     34.22419    33.184438    2.4954402    2102.4039    357.98686 
 1810000    291.20933   -10179.859            0   -10125.014   -2195.5713    32.817902     34.22419    33.184438    2.1813034    2103.5608    356.74422 
 1811000    305.17669   -10178.369            0   -10120.894   -1429.7436    32.817902     34.22419    33.184438    2.1377226    2104.7522    355.50753 
 1812000    295.00886   -10177.013            0   -10121.453   -1700.9298    32.817902     34.22419    33.184438    2.4386815    2105.9394    354.27018 
 1813000     298.1474   -10178.924            0   -10122.773   -1780.2675    32.817902     34.22419    33.184438    1.9794708     2107.114    353.03077 
 1814000    295.24813   -10177.688            0   -10122.084    -1314.276    32.817902     34.22419    33.184438    2.8457708    2108.3076    351.79461 
 1815000    302.10865   -10176.171            0   -10119.274   -1036.8901    32.817902     34.22419    33.184438    2.1879956    2109.5101    350.55999 
 1816000    302.11587   -10180.312            0   -10123.413   -1692.4477    32.817902     34.22419    33.184438     2.261417    2110.7193     349.3265 
 1817000    296.82564    -10177.47            0   -10121.569   -1355.4798    32.817902     34.22419    33.184438    2.3314322    2111.9027     348.0888 
 1818000     306.9369   -10176.395            0   -10118.589   -1781.0026    32.817902     34.22419    33.184438    2.2507578    2113.0787    346.84994 
 1819000    305.04196   -10179.417            0   -10121.968   -1223.9808    32.817902     34.22419    33.184438    2.4674732    2114.3093    345.62008 
 1820000    305.04438   -10180.017            0   -10122.567   -1701.1651    32.817902     34.22419    33.184438    2.1788623     2115.505    344.38454 
 1821000    296.75469   -10175.524            0   -10119.635   -571.82514    32.817902     34.22419    33.184438    2.3768699    2116.6979    343.14858 
 1822000    302.69019   -10178.641            0   -10121.635   -2385.5822    32.817902     34.22419    33.184438    2.0300795    2117.9032    341.91469 
 1823000     301.1346   -10177.972            0   -10121.259   -1272.0967    32.817902     34.22419    33.184438    2.1825556    2119.1167    340.68214 
 1824000    306.33809   -10178.155            0   -10120.462   -1982.5162    32.817902     34.22419    33.184438    2.8522114    2120.3401     339.4512 
 1825000    290.71843   -10178.227            0   -10123.475   -1332.1379    32.817902     34.22419    33.184438    2.2472321      2121.53    338.21493 
 1826000    301.48059   -10177.215            0   -10120.436   -2301.6246    32.817902     34.22419    33.184438    2.8667082    2122.7759    336.98759 
 1827000    301.01995   -10176.889            0   -10120.198   -1190.6993    32.817902     34.22419    33.184438    2.7813433    2123.9816    335.75389 
 1828000    291.40103   -10177.838            0   -10122.958   -1551.0564    32.817902     34.22419    33.184438    2.0368701    2125.1256     334.5105 
 1829000    301.00708    -10178.64            0    -10121.95   -1610.3211    32.817902     34.22419    33.184438    2.3813279    2126.4029    333.28814 
 1830000    296.65414   -10176.843            0   -10120.974   -2525.8221    32.817902     34.22419    33.184438    2.1467211    2127.6593    332.06243 
 1831000    306.63189   -10177.499            0   -10119.751   -1559.5583    32.817902     34.22419    33.184438    2.5634391    2128.9276    330.83854 
 1832000    306.31229   -10179.412            0   -10121.724   -1419.2935    32.817902     34.22419    33.184438     2.617757    2130.1675    329.61022 
 1833000    288.29513   -10176.797            0   -10122.502   -1176.5157    32.817902     34.22419    33.184438    2.1041152    2131.4573    328.38955 
 1834000    309.97353   -10177.149            0   -10118.772   -2518.3577    32.817902     34.22419    33.184438    1.9467507    2132.6967    327.16109 
 1835000    299.38541   -10177.955            0   -10121.571   -1470.0932    32.817902     34.22419    33.184438    2.2460176    2133.9503    325.93477 
 1836000    291.14527   -10177.261            0   -10122.429   -1453.4179    32.817902     34.22419    33.184438    2.3132839    2135.2123     324.7097 
 1837000    310.27529   -10177.097            0   -10118.662   -1363.2634    32.817902     34.22419    33.184438    2.3824868    2136.5051    323.48926 
 1838000    292.76917   -10177.625            0   -10122.487   -1714.6718    32.817902     34.22419    33.184438    2.2096044     2137.769    322.26438 
 1839000    302.05408   -10178.397            0   -10121.511    -1457.347    32.817902     34.22419    33.184438    2.3832064    2139.0505    321.04208 
 1840000    304.97736   -10174.132            0   -10116.695   -1362.8786    32.817902     34.22419    33.184438    2.1528892     2140.261    319.80912 
 1841000    288.50595    -10173.46            0   -10119.125   -655.63607    32.817902     34.22419    33.184438    1.9870383    2141.4384    318.57124 
 1842000    299.29358   -10178.491            0   -10122.125   -3148.3471    32.817902     34.22419    33.184438    2.5554698    2142.6734    317.34199 
 1843000    296.49573   -10177.699            0    -10121.86   -1692.5565    32.817902     34.22419    33.184438    2.3832603    2143.8674    316.10667 
 1844000    305.60262   -10176.155            0     -10118.6    -1639.749    32.817902     34.22419    33.184438    2.0882633    2145.0337    314.86733 
 1845000    294.95616   -10177.707            0   -10122.158   -2512.7358    32.817902     34.22419    33.184438    2.0737427    2146.2463    313.63484 
 1846000    300.27531   -10177.796            0   -10121.245   -1901.7669    32.817902     34.22419    33.184438    2.4017623     2147.428    312.39788 
 1847000    303.32896   -10175.009            0   -10117.882   -1699.1373    32.817902     34.22419    33.184438    2.8901482    2148.6457    311.16621 
 1848000    308.51703   -10177.598            0   -10119.495   -2047.6639    32.817902     34.22419    33.184438    2.2147728    2149.8526    309.93298 
 1849000    296.50832   -10177.608            0   -10121.766    -2502.737    32.817902     34.22419    33.184438    1.9280922    2151.0606    308.69995 
 1850000    293.77007   -10175.516            0    -10120.19    38.410382    32.817902     34.22419    33.184438    2.7635822    2152.2554    307.46506 
 1851000    312.36224   -10177.718            0    -10118.89   -1701.9003    32.817902     34.22419    33.184438    2.6086363    2153.4696    306.23297 
 1852000    305.19526   -10180.171            0   -10122.693   -1539.7611    32.817902     34.22419    33.184438    2.1953514    2154.6751    304.99967 
 1853000    301.20795   -10176.278            0   -10119.551   -2736.3442    32.817902     34.22419    33.184438    2.3682783    2155.8807    303.76642 
 1854000    298.45434   -10178.226            0   -10122.017   -1643.6579    32.817902     34.22419    33.184438    2.5283729    2157.0761    302.53177 
 1855000    288.99064   -10177.454            0   -10123.028   -2103.7059    32.817902     34.22419    33.184438    2.4646409    2158.2941    301.30031 
 1856000    301.47394   -10176.605            0   -10119.827   -2726.6377    32.817902     34.22419    33.184438    2.5209104    2159.5093    300.06849 
 1857000    293.48756    -10177.13            0   -10121.857    -2776.604    32.817902     34.22419    33.184438    2.1527439    2160.7145     298.8353 
 1858000    296.21088   -10179.493            0   -10123.707   -1275.3187    32.817902     34.22419    33.184438    2.2430195    2161.9331    297.60399 
 1859000    298.78128   -10177.093            0   -10120.823   -2347.0139    32.817902     34.22419    33.184438    1.9177975     2163.127     296.3693 
 1860000    304.51834   -10178.424            0   -10121.073   -1732.4829    32.817902     34.22419    33.184438    2.1872723    2164.2934    295.13092 
 1861000    292.61411   -10179.599            0   -10124.491   -2279.4273    32.817902     34.22419    33.184438    2.5295484    2165.4891    293.89659 
 1862000    311.53808   -10179.239            0   -10120.567   -972.37767    32.817902     34.22419    33.184438    2.0339624    2166.6858    292.66244 
 1863000    301.15694    -10178.09            0   -10121.372   -2675.6122    32.817902     34.22419    33.184438    2.1900144    2167.9467    291.43696 
 1864000    285.25871   -10179.176            0   -10125.453   -2641.9236    32.817902     34.22419    33.184438    2.6477392     2169.238    290.21551 
 1865000    301.80025   -10178.516            0   -10121.677   -2388.1946    32.817902     34.22419    33.184438    2.4191167    2170.5015    288.99028 
 1866000    308.52889   -10179.401            0   -10121.295   -2029.2229    32.817902     34.22419    33.184438    2.7785206    2171.7629    287.76473 
 1867000    298.43509   -10180.443            0   -10124.238   -2109.7363    32.817902     34.22419    33.184438     2.256801    2172.9935    286.53509 
 1868000     297.1568   -10177.149            0   -10121.185   -1334.8681    32.817902     34.22419    33.184438    2.6457547    2174.3013    285.31555 
 1869000    303.15237   -10177.395            0   -10120.301   -2203.4401    32.817902     34.22419    33.184438    2.4834111    2175.5991    284.09463 
 1870000    300.48107   -10180.245            0   -10123.655    -1684.324    32.817902     34.22419    33.184438    2.5699604    2176.8853    282.87211 
 1871000    299.44934   -10178.378            0   -10121.982   -1823.1143    32.817902     34.22419    33.184438    2.1390339    2178.1726    281.64965 
 1872000    305.20833   -10178.565            0   -10121.085   -1202.6326    32.817902     34.22419    33.184438    2.5733655    2179.4395    280.42449 
 1873000    303.61481   -10177.361            0    -10120.18   -2046.6696    32.817902     34.22419    33.184438    2.5885536    2180.6429    279.19117 
 1874000    302.18892   -10179.104            0   -10122.192   -994.23124    32.817902     34.22419    33.184438    2.2545325    2181.8481     277.9581 
 1875000    294.79926   -10178.393            0   -10122.872   -1383.8884    32.817902     34.22419    33.184438    1.8208281    2183.0438    276.72386 
 1876000    301.14268   -10176.011            0   -10119.297   -1943.1153    32.817902     34.22419    33.184438    2.3290209    2184.2929     275.4964 
 1877000    288.12468   -10176.673            0    -10122.41   -1934.3692    32.817902     34.22419    33.184438    2.7270849    2185.5003    274.26368 
 1878000    287.57735   -10180.501            0   -10126.341   -1451.7022    32.817902     34.22419    33.184438    2.4381958    2186.7362    273.03456 
 1879000    292.51904   -10178.524            0   -10123.433   -1122.2508    32.817902     34.22419    33.184438    2.5285345    2187.9625    271.80423 
 1880000    306.31726   -10178.242            0   -10120.553   -1986.1734    32.817902     34.22419    33.184438    2.1389798     2189.146    270.56861 
 1881000    296.78184   -10178.622            0   -10122.729   -770.62997    32.817902     34.22419    33.184438    3.3165898    2190.3718    269.33825 
 1882000    289.52714   -10178.093            0   -10123.565   -2682.9858    32.817902     34.22419    33.184438    2.9298532    2191.5775    268.10544 
 1883000    306.89319   -10178.378            0    -10120.58    -1871.575    32.817902     34.22419    33.184438     2.742035    2192.7885     266.8733 
 1884000    291.80541   -10177.665            0   -10122.709   -1997.8995    32.817902     34.22419    33.184438    2.2287112    2193.9927    265.64037 
 1885000    296.03235   -10179.174            0   -10123.422   -1331.7576    32.817902     34.22419    33.184438    2.9757462    2195.2602     264.4151 
 1886000    309.80482   -10177.719            0   -10119.373   -2282.3903    32.817902     34.22419    33.184438    2.3213117    2196.4592    263.18156 
 1887000     296.0278   -10178.619            0   -10122.867   -2487.9115    32.817902     34.22419    33.184438    2.1158969    2197.6467     261.9467 
 1888000    296.73144   -10178.645            0   -10122.761   -2712.5111    32.817902     34.22419    33.184438    2.2578291     2198.853    260.71411 
 1889000    294.66043    -10176.59            0   -10121.096   -2621.2552    32.817902     34.22419    33.184438    2.2148573      2200.03    259.47811 
 1890000    307.28074   -10177.036            0   -10119.165   -1685.2335    32.817902     34.22419    33.184438    2.9219106    2201.1763    258.23856 
 1891000    301.50058   -10179.106            0   -10122.324   -1902.2544    32.817902     34.22419    33.184438    2.1379915    2202.3814    257.00598 
 1892000    288.62353   -10176.678            0   -10122.321   -2022.0716    32.817902     34.22419    33.184438    2.3564883    2203.5744    255.77203 
 1893000    310.61526   -10177.151            0   -10118.652   -1545.8658    32.817902     34.22419    33.184438    2.0075485    2204.8212    254.54434 
 1894000    301.56218   -10178.459            0   -10121.665   -1070.6913    32.817902     34.22419    33.184438    2.1518956    2206.0875    253.31886 
 1895000    296.36874    -10178.29            0   -10122.474   -1275.5143    32.817902     34.22419    33.184438    2.1005591    2207.3902    252.09748 
 1896000    306.39739   -10176.299            0   -10118.594   -1511.3363    32.817902     34.22419    33.184438    2.7471174    2208.7065    250.87757 
 1897000    306.70332   -10177.265            0   -10119.503    -1862.421    32.817902     34.22419    33.184438    2.7752532    2209.9909    249.65396 
 1898000    299.68042   -10178.925            0   -10122.486   -2234.2174    32.817902     34.22419    33.184438    2.0441524    2211.3024    248.43331 
 1899000    301.40405   -10177.202            0   -10120.438   -969.58146    32.817902     34.22419    33.184438    2.4480226     2212.498    247.19961 
 1900000    302.31158   -10176.519            0   -10119.584   -1638.7411    32.817902     34.22419    33.184438    2.2205943     2213.739      245.971 
 1901000    292.26208     -10176.9            0   -10121.858   -1466.4909    32.817902     34.22419    33.184438    2.1744568      2214.99    244.74348 
 1902000     296.8778   -10178.325            0   -10122.413   -1926.8168    32.817902     34.22419    33.184438    2.3261977    2216.2791    243.52012 
 1903000    306.56683   -10178.743            0   -10121.007   -1308.7846    32.817902     34.22419    33.184438    2.5115325    2217.5628     242.2961 
 1904000    294.41466   -10174.765            0   -10119.318   -1626.2654    32.817902     34.22419    33.184438    2.5843107    2218.8541    241.07284 
 1905000    299.49069   -10179.988            0   -10123.584   -1426.3468    32.817902     34.22419    33.184438    2.2140034    2220.1021    239.84483 
 1906000     301.3113   -10177.736            0    -10120.99   -1938.4003    32.817902     34.22419    33.184438    2.3685192    2221.2893    238.61026 
 1907000    309.27853   -10178.568            0   -10120.321   -2494.2464    32.817902     34.22419    33.184438    2.7170282     2222.476    237.37569 
 1908000    300.73813    -10178.66            0   -10122.021   -2120.1926    32.817902     34.22419    33.184438    2.2228777    2223.7041    236.14557 
 1909000    298.89991   -10176.245            0   -10119.953   -2149.2752    32.817902     34.22419    33.184438    2.3396281    2224.9001    234.91206 
 1910000    301.33772   -10176.228            0   -10119.476   -1840.3414    32.817902     34.22419    33.184438    2.4565441    2226.1322    233.68239 
 1911000    293.71119   -10177.368            0   -10122.052   -1765.0483    32.817902     34.22419    33.184438    2.5727458    2227.3198    232.44806 
 1912000    307.52206   -10178.427            0    -10120.51   -1876.9309    32.817902     34.22419    33.184438    2.1599733    2228.5194    231.21504 
 1913000    312.97045   -10176.513            0   -10117.571   -1886.7734    32.817902     34.22419    33.184438    2.5780791    2229.7577    229.98604 
 1914000    297.10612   -10178.266            0   -10122.311    -1994.896    32.817902     34.22419    33.184438    2.4252333    2230.9882    228.75623 
 1915000    313.37628    -10179.69            0   -10120.671   -2783.7253    32.817902     34.22419    33.184438    2.0642927    2232.1861     227.5231 
 1916000    305.81546   -10176.047            0   -10118.452   -1487.1587    32.817902     34.22419    33.184438    2.0966671     2233.363    226.28788 
 1917000    294.90348     -10178.6            0    -10123.06   -2341.3578    32.817902     34.22419    33.184438    2.5759865    2234.5625    225.05501 
 1918000    296.42379    -10176.14            0   -10120.314   -1874.8235    32.817902     34.22419    33.184438    2.5883004    2235.8071    223.82667 
 1919000    303.36857    -10177.44            0   -10120.306   -2018.8675    32.817902     34.22419    33.184438     2.443651    2236.9944    222.59262 
 1920000    292.52455   -10178.666            0   -10123.575   -2253.6204    32.817902     34.22419    33.184438    2.7074093     2238.188    221.35925 
 1921000    307.00923    -10177.76            0    -10119.94    -919.6294    32.817902     34.22419    33.184438    2.3920149    2239.3896    220.12671 
 1922000    297.23694   -10178.778            0   -10122.798   -1347.8278    32.817902     34.22419    33.184438    2.0427649    2240.6059    218.89564 
 1923000    295.58253   -10179.181            0   -10123.513   -2789.1732    32.817902     34.22419    33.184438    2.0734528    2241.8101     217.6634 
 1924000    308.00738   -10178.186            0   -10120.178    -2857.017    32.817902     34.22419    33.184438    2.6015278    2243.0715    216.43672 
 1925000    300.51871   -10179.375            0   -10122.778   -1907.3898    32.817902     34.22419    33.184438    2.4015732    2244.2654    215.20353 
 1926000    286.77818   -10177.323            0   -10123.314   -2202.8838    32.817902     34.22419    33.184438    2.2106791    2245.4713    213.97153 
 1927000    301.60591   -10177.579            0   -10120.777   -1438.9922    32.817902     34.22419    33.184438    2.6071388    2246.6556     212.7375 
 1928000     296.6806   -10178.159            0   -10122.284   -603.89676    32.817902     34.22419    33.184438    2.6029144    2247.9204    211.51111 
 1929000    293.30838   -10180.053            0   -10124.814   -2280.5669    32.817902     34.22419    33.184438    2.6932825    2249.1832    210.28449 
 1930000    303.69942   -10178.569            0   -10121.372   -2565.9861    32.817902     34.22419    33.184438    2.7181844    2250.4683     209.0599 
 1931000    301.20187    -10177.27            0   -10120.544   -2401.1729    32.817902     34.22419    33.184438    2.6631684    2251.7699    207.83677 
 1932000    294.62059   -10177.412            0   -10121.926   -2548.4413    32.817902     34.22419    33.184438    2.4696012    2252.9986    206.60686 
 1933000    296.67444   -10178.893            0   -10123.019   -2052.7774    32.817902     34.22419    33.184438    1.9631388    2254.2625    205.38017 
 1934000    291.34359   -10174.296            0   -10119.427   -1082.6866    32.817902     34.22419    33.184438    2.2237179    2255.5254    204.15333 
 1935000    295.44127   -10177.667            0   -10122.026   -2695.7182    32.817902     34.22419    33.184438    1.9728761    2256.8526    202.93225 
 1936000    304.87143   -10179.518            0   -10122.101   -2829.5634    32.817902     34.22419    33.184438    2.3402556    2258.1172    201.70546 
 1937000    307.75564   -10176.686            0   -10118.726   -2161.0415    32.817902     34.22419    33.184438    2.3443789    2259.4057    200.48075 
 1938000    302.13986   -10177.174            0   -10120.272   -2280.3699    32.817902     34.22419    33.184438    2.4097135    2260.6548    199.25249 
 1939000    302.99235   -10179.073            0    -10122.01   -1030.6171    32.817902     34.22419    33.184438    2.1431022    2261.8425    198.01884 
 1940000    303.78825   -10176.323            0    -10119.11   -1233.1905    32.817902     34.22419    33.184438    2.4614817    2263.0838     196.7899 
 1941000    308.22208    -10177.93            0   -10119.882   -2231.6536    32.817902     34.22419    33.184438    2.4378989    2264.2344    195.55311 
 1942000    291.28819   -10177.658            0   -10122.799   -1252.2168    32.817902     34.22419    33.184438    2.1305847    2265.4518    194.32215 
 1943000    304.88999   -10176.731            0   -10119.311   -1608.9065    32.817902     34.22419    33.184438    2.7964115    2266.6478    193.08937 
 1944000    297.93674   -10175.987            0   -10119.876   -2179.5279    32.817902     34.22419    33.184438    2.0796583     2267.814    191.85412 
 1945000    308.14472   -10179.442            0   -10121.409   -2513.3777    32.817902     34.22419    33.184438    2.2448563    2269.0519    190.62495 
 1946000     301.3282   -10178.511            0   -10121.761   -2475.7947    32.817902     34.22419    33.184438    2.2986416    2270.2539     189.3928 
 1947000    302.66765   -10178.049            0   -10121.047   -1414.3037    32.817902     34.22419    33.184438    2.4105246    2271.4543    188.16053 
 1948000    309.98125   -10178.165            0   -10119.786   -1889.1906    32.817902     34.22419    33.184438    2.2748902     2272.632    186.92644 
 1949000    291.55544   -10178.815            0   -10123.905   -879.52123    32.817902     34.22419    33.184438    2.2506887    2273.8722    185.69751 
 1950000    296.75139   -10176.989            0   -10121.101   -1466.6123    32.817902     34.22419    33.184438    2.2105086    2275.0606    184.46437 
 1951000    304.27611   -10178.418            0   -10121.114   -1158.9989    32.817902     34.22419    33.184438    2.9711028    2276.2679     183.2328 
 1952000     297.9347   -10179.514            0   -10123.404   -1928.2716    32.817902     34.22419    33.184438    2.1858912     2277.487     182.0022 
 1953000    293.05455   -10181.092            0     -10125.9   -1642.8257    32.817902     34.22419    33.184438    2.7558565    2278.6957    180.77079 
 1954000    305.89697   -10178.681            0   -10121.071   -1987.7222    32.817902     34.22419    33.184438    2.1428293    2279.9375      179.542 
 1955000    298.72071   -10177.418            0   -10121.159   -1801.2802    32.817902     34.22419    33.184438    2.1684792    2281.1367    178.30988 
 1956000    292.37615   -10179.733            0   -10124.669   -2081.3642    32.817902     34.22419    33.184438     2.120165    2282.3567     177.0794 
 1957000    307.75813   -10177.764            0   -10119.804   -3143.7946    32.817902     34.22419    33.184438    2.5733757    2283.5613    175.84774 
 1958000    302.29384   -10178.418            0   -10121.487   -2445.1277    32.817902     34.22419    33.184438    2.2945999    2284.8107    174.61955 
 1959000    294.90943   -10179.518            0   -10123.977   -2393.9133    32.817902     34.22419    33.184438    2.7297167    2286.0078    173.38736 
 1960000    312.19108   -10178.173            0   -10119.377   -1624.0416    32.817902     34.22419    33.184438    2.1216597    2287.2422    172.15801 
 1961000    301.96229   -10178.679            0   -10121.809   -2459.5457    32.817902     34.22419    33.184438    2.4516673    2288.5121    170.93132 
 1962000    298.83828   -10179.872            0   -10123.591   -951.70383    32.817902     34.22419    33.184438     2.432571    2289.8257    169.70781 
 1963000     308.5842   -10179.924            0   -10121.808    -984.7308    32.817902     34.22419    33.184438    2.2423815    2291.0948    168.48094 
 1964000    308.21037   -10177.862            0   -10119.816   -2179.6189    32.817902     34.22419    33.184438    2.0878558    2292.3235    167.25107 
 1965000    310.80085   -10176.638            0   -10118.105   -2373.5018    32.817902     34.22419    33.184438    1.9834226     2293.608    166.02524 
 1966000    302.29167   -10178.867            0   -10121.936   -1443.9241    32.817902     34.22419    33.184438    2.3587936    2294.8472     164.7961 
 1967000     297.3651   -10177.831            0   -10121.828   -2052.0465    32.817902     34.22419    33.184438    2.5992996    2296.1095    163.56859 
 1968000    312.16595   -10177.297            0   -10118.506   -2217.1186    32.817902     34.22419    33.184438    2.2478233    2297.4052    162.34341 
 1969000    292.72726   -10178.072            0   -10122.942   -1470.6912    32.817902     34.22419    33.184438    2.2011436    2298.6738    161.11625 
 1970000    295.59797   -10177.581            0   -10121.911   -2807.3397    32.817902     34.22419    33.184438    1.9772877    2299.9459    159.88929 
 1971000    309.15149   -10176.619            0   -10118.396   -1454.2034    32.817902     34.22419    33.184438    1.9600052    2301.2134    158.66196 
 1972000    305.21602   -10177.611            0   -10120.129   -2185.9826    32.817902     34.22419    33.184438    2.1665853    2302.3971    157.42886 
 1973000    298.26236     -10179.4            0   -10123.228   -2816.4252    32.817902     34.22419    33.184438    2.3829246    2303.5955    156.19681 
 1974000    309.48963   -10178.278            0   -10119.991   -1650.3613    32.817902     34.22419    33.184438    2.3919313    2304.8113    154.96597 
 1975000    301.79419   -10177.278            0   -10120.441      -2160.6    32.817902     34.22419    33.184438    2.4585497    2305.9875     153.7325 
 1976000    305.98922   -10179.626            0   -10121.998   -1516.9895    32.817902     34.22419    33.184438    2.4351738    2307.2256    152.50319 
 1977000     300.1341   -10178.634            0   -10122.109   -1887.4128    32.817902     34.22419    33.184438    2.0015564    2308.4219    151.27112 
 1978000    296.73473   -10176.347            0   -10120.462   -551.02608    32.817902     34.22419    33.184438    2.7497351    2309.6299    150.03986 
 1979000    307.86231   -10177.424            0   -10119.444   -1438.1908    32.817902     34.22419    33.184438    2.4168907    2310.7867    148.80532 
 1980000    298.37875   -10179.725            0   -10123.531    -1729.524    32.817902     34.22419    33.184438    2.2240093     2311.967    147.57236 
 1981000    304.67548       -10178            0    -10120.62   -1414.6962    32.817902     34.22419    33.184438    2.4252732    2313.1831    146.34173 
 1982000    296.72199   -10175.753            0    -10119.87   -1696.8247    32.817902     34.22419    33.184438    2.4304779    2314.4429    145.11385 
 1983000    299.05434   -10178.834            0   -10122.513    -2098.706    32.817902     34.22419    33.184438    2.2734406    2315.6402    143.88205 
 1984000    299.03677   -10178.257            0   -10121.939   -1301.4759    32.817902     34.22419    33.184438    2.2754926    2316.8171    142.64903 
 1985000    298.63983   -10175.998            0   -10119.754   -2334.2313    32.817902     34.22419    33.184438    2.6733912    2317.9819    141.41534 
 1986000    291.77711   -10177.662            0   -10122.711   -2099.6876    32.817902     34.22419    33.184438    2.0864082    2319.1363    140.18109 
 1987000    299.37494    -10178.06            0   -10121.678   -1583.3567    32.817902     34.22419    33.184438    2.7199306    2320.3395    138.94985 
 1988000    298.81546   -10175.625            0   -10119.348   -856.01059    32.817902     34.22419    33.184438    2.7107946    2321.5167    137.71709 
 1989000     308.3913   -10177.056            0   -10118.976   -556.10276    32.817902     34.22419    33.184438    2.6150229    2322.7199    136.48592 
 1990000    298.20961   -10178.325            0   -10122.162   -1339.8945    32.817902     34.22419    33.184438    1.8311991    2323.9252    135.25491 
 1991000    298.85629   -10178.327            0   -10122.043   -2408.7235    32.817902     34.22419    33.184438    2.1753434    2325.1201    134.02332 
 1992000    309.95107   -10177.221            0   -10118.847   -1808.3794    32.817902     34.22419    33.184438    2.1309529    2326.3776    132.79534 
 1993000    296.13348   -10178.988            0   -10123.217   -2299.7422    32.817902     34.22419    33.184438    2.1914942    2327.6629     131.5689 
 1994000    300.82813   -10177.879            0   -10121.224    -2277.823    32.817902     34.22419    33.184438    2.2517997    2328.9655    130.34337 
 1995000    303.08331   -10177.367            0   -10120.287    -1658.782    32.817902     34.22419    33.184438    2.2242417    2330.3045    129.11977 
 1996000    298.44808   -10180.295            0   -10124.088    -1592.074    32.817902     34.22419    33.184438    2.4907746    2331.6338    127.89553 
 1997000    306.80886   -10178.169            0   -10120.387   -2302.3347    32.817902     34.22419    33.184438    2.2970864    2332.8158    126.66316 
 1998000    297.56475   -10178.787            0   -10122.746   -1725.4817    32.817902     34.22419    33.184438    1.8935659    2334.0541    125.43389 
 1999000    292.51754   -10178.853            0   -10123.763    -2837.281    32.817902     34.22419    33.184438    2.1793242    2335.2957    124.20477 
 2000000    307.24213   -10178.898            0   -10121.034   -1953.1434    32.817902     34.22419    33.184438    2.1398513     2336.548    122.97621 
 2001000    291.75919   -10178.084            0   -10123.136   -2043.6964    32.817902     34.22419    33.184438    2.4102966    2337.8628    121.75088 
 2002000    297.09726   -10180.565            0   -10124.612   -1994.9184    32.817902     34.22419    33.184438    1.9162446    2339.1856    120.52586 
 2003000    297.64785   -10177.998            0   -10121.941   -917.35637    32.817902     34.22419    33.184438    2.4080577    2340.4096    119.29571 
 2004000    303.44509   -10177.626            0   -10120.477   -2618.3464    32.817902     34.22419    33.184438    2.6868415    2341.6265     118.0652 
 2005000    304.79305   -10178.895            0   -10121.493   -1451.4852    32.817902     34.22419    33.184438    3.1077609    2342.8553     116.8353 
 2006000    288.50751   -10178.616            0   -10124.281    -1435.453    32.817902     34.22419    33.184438    2.1713507    2344.1135    115.60686 
 2007000    297.71284   -10175.949            0    -10119.88   -2159.9146    32.817902     34.22419    33.184438    2.5368083    2345.2727    114.37355 
 2008000    298.40419   -10178.199            0       -10122   -1625.1458    32.817902     34.22419    33.184438    2.3750162     2346.473     113.1423 
 2009000    299.83414    -10179.69            0   -10123.221   -2527.6851    32.817902     34.22419    33.184438     2.512107     2347.735    111.91403 
 2010000    302.04512   -10177.154            0   -10120.269   -3353.3131    32.817902     34.22419    33.184438    2.1614569    2348.9514    110.68357 
 2011000    297.64496   -10177.755            0   -10121.699   -866.87284    32.817902     34.22419    33.184438    2.0523856    2350.1308    109.45141 
 2012000    290.49011   -10178.017            0   -10123.308   -2317.3314    32.817902     34.22419    33.184438    2.1368486    2351.3209    108.21979 
 2013000    314.41852   -10178.439            0   -10119.223   -2307.9324    32.817902     34.22419    33.184438    2.2382995     2352.487    106.98712 
 2014000     295.6077   -10177.569            0   -10121.896   -1666.4355    32.817902     34.22419    33.184438    2.7442302     2353.747    105.75875 
 2015000     302.3018   -10179.153            0    -10122.22   -880.60298    32.817902     34.22419    33.184438    3.1427156    2354.9768    104.52899 
 2016000    297.39482   -10176.408            0   -10120.399   -1921.5175    32.817902     34.22419    33.184438    2.2345171    2356.2218    103.29991 
 2017000    321.27063   -10178.107            0   -10117.602    -2257.509    32.817902     34.22419    33.184438     2.255505    2357.4044    102.06811 
 2018000    307.22416   -10180.147            0   -10122.287   -1937.2794    32.817902     34.22419    33.184438    2.1600653    2358.6532    100.83919 
 2019000     291.0587   -10176.304            0   -10121.488   -2732.1328    32.817902     34.22419    33.184438    2.2799913    2359.9077    99.610486 
 2020000    307.94844   -10176.878            0   -10118.881   -2486.5549    32.817902     34.22419    33.184438    2.1257185    2361.1161    98.379836 
 2021000    300.91523   -10180.039            0   -10123.367   -2451.7556    32.817902     34.22419    33.184438     2.687411    2362.3058    97.148442 
 2022000    302.59056   -10178.021            0   -10121.034   -2668.6272    32.817902     34.22419    33.184438    2.1495868    2363.4539    95.915402 
 2023000    301.82844    -10175.74            0   -10118.896   -2321.1157    32.817902     34.22419    33.184438    2.7304047    2364.6729    94.685292 
 2024000    293.96161   -10178.957            0   -10123.595   -1822.8582    32.817902     34.22419    33.184438    2.6297919     2365.919    93.456261 
 2025000    301.96054    -10178.29            0   -10121.422   -1750.5445    32.817902     34.22419    33.184438    2.4303855    2367.1668    92.227276 
 2026000    303.90081   -10177.037            0   -10119.803   -1378.9401    32.817902     34.22419    33.184438     2.320364    2368.4471    90.999524 
 2027000    299.55105   -10178.049            0   -10121.634    -1590.774    32.817902     34.22419    33.184438    2.1741587    2369.7508    89.772604 
 2028000    295.55774   -10178.637            0   -10122.974   -2290.7218    32.817902     34.22419    33.184438    2.1632776    2371.0516    88.545494 
 2029000    298.27898   -10177.667            0   -10121.492   -2090.4528    32.817902     34.22419    33.184438    2.1633657    2372.2382    87.314106 
 2030000    296.22719   -10175.624            0   -10119.835   -2013.4804    32.817902     34.22419    33.184438    2.2217421    2373.4549    86.083856 
 2031000    293.24882   -10179.256            0   -10124.028   -2154.0653    32.817902     34.22419    33.184438    2.2675478    2374.7184    84.855292 
 2032000    296.80561    -10177.73            0   -10121.832   -2567.4744    32.817902     34.22419    33.184438    2.2694871    2376.0313    83.628429 
 2033000    300.86633   -10177.989            0   -10121.326   -1759.8815    32.817902     34.22419    33.184438    2.3642833    2377.3372    82.401237 
 2034000    298.52224   -10178.305            0   -10122.083   -1428.1433    32.817902     34.22419    33.184438    2.2093573    2378.6595    81.174522 
 2035000    294.50844   -10179.693            0   -10124.228   -2539.3393    32.817902     34.22419    33.184438    2.0917839    2379.8766    79.944175 
 2036000    307.33557   -10178.221            0   -10120.339   -2599.9712    32.817902     34.22419    33.184438    2.4570509    2381.0327    78.711826 
 2037000    289.67043   -10176.079            0   -10121.525   -1688.6077    32.817902     34.22419    33.184438    2.9860081    2382.2394    77.481199 
 2038000    298.07754   -10181.298            0   -10125.161   -2375.5305    32.817902     34.22419    33.184438    2.4530771    2383.4363    76.250285 
 2039000    304.24824   -10179.205            0   -10121.905   -2214.6598    32.817902     34.22419    33.184438    2.2920555    2384.6327     75.01939 
 2040000    302.91647   -10177.472            0   -10120.423   -2217.9794    32.817902     34.22419    33.184438     2.390226    2385.8322    73.788626 
 2041000    288.06166   -10178.863            0   -10124.612    -2026.026    32.817902     34.22419    33.184438    1.9948027    2387.0439    72.558262 
 2042000    300.06631   -10177.952            0    -10121.44   -2085.4741    32.817902     34.22419    33.184438     2.331142    2388.2349    71.327304 
 2043000    292.52153   -10176.527            0   -10121.436   -1388.1542    32.817902     34.22419    33.184438    2.7589844    2389.4454    70.096957 
 2044000    297.88211   -10179.666            0   -10123.565   -2712.7076    32.817902     34.22419    33.184438     2.283271    2390.6899    68.867611 
 2045000    291.12469   -10177.414            0   -10122.586   -993.07649    32.817902     34.22419    33.184438    2.4396754    2391.8725    67.636497 
 2046000    308.07235   -10178.401            0   -10120.381   -1791.9876    32.817902     34.22419    33.184438    2.4226882    2393.1042    66.406798 
 2047000    302.88302    -10180.61            0   -10123.567   -2684.6603    32.817902     34.22419    33.184438     2.284438    2394.3227    65.176736 
 2048000    293.99611   -10176.885            0   -10121.516   -2290.9319    32.817902     34.22419    33.184438    2.2884276    2395.5816    63.947765 
 2049000    307.58342   -10177.598            0    -10119.67   -1648.4579    32.817902     34.22419    33.184438    1.9743796    2396.8307    62.718505 
 2050000    298.47143   -10179.663            0   -10123.451   -1650.0158    32.817902     34.22419    33.184438    2.4417293    2398.0394    61.488189 
 2051000    313.13826    -10180.86            0   -10121.886   -1448.6626    32.817902     34.22419    33.184438    2.1929041    2399.2496    60.257935 
 2052000    312.98427   -10174.747            0   -10115.802   -1688.6513    32.817902     34.22419    33.184438    2.5188986    2400.4901    59.028445 
 2053000    302.34684   -10175.879            0   -10118.938   -1763.7519    32.817902     34.22419    33.184438    2.3676691    2401.7048    57.798322 
 2054000    293.83878   -10178.267            0   -10122.928   -1898.5521    32.817902     34.22419    33.184438    2.2499259    2402.9144    56.568097 
 2055000    306.90428   -10179.818            0   -10122.018   -2899.2215    32.817902     34.22419    33.184438    2.3749245     2404.155    55.338606 
 2056000    305.05425   -10176.732            0   -10119.281    -1330.498    32.817902     34.22419    33.184438    2.2309501    2405.4016    54.109238 
 2057000    305.92801   -10179.603            0   -10121.987   -2106.4382    32.817902     34.22419    33.184438    2.2937386    2406.6655    52.880233 
 2058000    303.91051   -10179.211            0   -10121.975    -2126.638    32.817902     34.22419    33.184438    2.0939802    2407.9309    51.651224 
 2059000    305.58637    -10176.51            0   -10118.959   -1834.9507    32.817902     34.22419    33.184438    2.4292959    2409.2668    50.423655 
 2060000    299.24843   -10178.144            0   -10121.786   -2676.7178    32.817902     34.22419    33.184438    2.2162962    2410.4997    49.193871 
 2061000     300.3178   -10179.376            0   -10122.816   -2273.7926    32.817902     34.22419    33.184438    2.2459496     2411.756    47.964551 
 2062000    317.81119   -10179.097            0   -10119.243   -2101.2876    32.817902     34.22419    33.184438    2.0408049    2412.9258    46.733527 
 2063000    291.84842   -10177.797            0   -10122.833   -1809.7145    32.817902     34.22419    33.184438    2.3687883    2414.2161    45.504837 
 2064000    302.32376   -10178.739            0   -10121.802   -2173.9379    32.817902     34.22419    33.184438    2.0228345    2415.4943    44.275863 
 2065000    309.05792   -10177.905            0     -10119.7   -1424.1648    32.817902     34.22419    33.184438     2.564659    2416.7828    43.047021 
 2066000    300.72582   -10181.026            0    -10124.39   -1953.1168    32.817902     34.22419    33.184438     2.652864    2418.0659    41.818027 
 2067000    302.17014   -10178.092            0   -10121.183   -1909.9576    32.817902     34.22419    33.184438    3.2076036    2419.3386    40.588801 
 2068000      304.749   -10177.999            0   -10120.605   -2073.8181    32.817902     34.22419    33.184438    2.6249782    2420.5574    39.358656 
 2069000    281.60957   -10179.023            0   -10125.987   -2317.9641    32.817902     34.22419    33.184438     2.076634    2421.7427    38.127996 
 2070000    294.47223   -10177.778            0   -10122.319   -1967.3537    32.817902     34.22419    33.184438    2.2052541     2422.918    36.897228 
 2071000    301.07046   -10176.734            0   -10120.033   -2611.0983    32.817902     34.22419    33.184438    2.4912188    2424.0873    35.666429 
 2072000     290.6543   -10178.042            0   -10123.303   -1946.0095    32.817902     34.22419    33.184438    2.3778989    2425.3173    34.436554 
 2073000    297.95105   -10179.158            0   -10123.044   -719.34671    32.817902     34.22419    33.184438    2.3899138    2426.5006     33.20604 
 2074000    298.19373   -10176.968            0   -10120.808   -2730.9753    32.817902     34.22419    33.184438    2.7004955     2427.782    31.976865 
 2075000    300.55243    -10178.25            0   -10121.646   -2251.4529    32.817902     34.22419    33.184438    2.3744211    2428.9706    30.746463 
 2076000    293.19495   -10180.854            0   -10125.636   -2563.7657    32.817902     34.22419    33.184438     2.364549    2430.1983    29.516578 
 2077000    297.91877   -10178.291            0   -10122.184   -2076.6123    32.817902     34.22419    33.184438    2.1990735    2431.4642     28.28714 
 2078000    300.15292   -10177.531            0   -10121.003   -1767.3996    32.817902     34.22419    33.184438    3.3377975    2432.6502    27.056777 
 2079000    292.59517   -10177.024            0   -10121.919   -2674.7152    32.817902     34.22419    33.184438    2.6823851    2433.8394    25.826492 
 2080000    283.89957   -10177.753            0   -10124.285   -2009.1011    32.817902     34.22419    33.184438    2.1116006     2435.027    24.596232 
 2081000    299.37557   -10176.243            0   -10119.861    -1450.912    32.817902     34.22419    33.184438    2.6871518     2436.249    23.366345 
 2082000    295.82649   -10177.766            0   -10122.052   -1780.0803    32.817902     34.22419    33.184438    2.2719441    2437.4454    22.136235 
 2083000    285.57884   -10180.034            0    -10126.25   -2184.7903    32.817902     34.22419    33.184438     2.102182    2438.6519    20.906244 
 2084000    290.82277    -10177.77            0   -10122.999   -2223.2622    32.817902     34.22419    33.184438    1.9780433    2439.8297    19.676046 
 2085000     306.9314   -10178.441            0   -10120.636   -2366.1434    32.817902     34.22419    33.184438    2.3201457     2441.028    18.446055 
 2086000    301.24842   -10177.201            0   -10120.467   -1814.0121    32.817902     34.22419    33.184438    2.3027857    2442.2571    17.216314 
 2087000    297.56786   -10180.099            0   -10124.057   -1560.8997    32.817902     34.22419    33.184438    2.7510995    2443.4517    15.986347 
 2088000    307.26197   -10177.559            0   -10119.691   -2900.5796    32.817902     34.22419    33.184438    2.5700895    2444.6391    14.756373 
 2089000    307.31277   -10179.032            0   -10121.155   -2709.0765    32.817902     34.22419    33.184438    2.3970428    2445.8723    13.526694 
 2090000    305.97346   -10180.258            0   -10122.633   -2492.6072    32.817902     34.22419    33.184438    2.3153957    2447.1206    12.297089 
 2091000    308.47222   -10176.431            0   -10118.336   -1487.8578    32.817902     34.22419    33.184438    2.7164319    2448.3798    11.067513 
 2092000    301.69829   -10178.818            0   -10121.999   -2202.5674    32.817902     34.22419    33.184438    1.9684329    2449.6691    9.8380283 
 2093000    295.39429   -10177.792            0    -10122.16   -2165.9157    32.817902     34.22419    33.184438    2.1626113    2450.9602    8.6084905 
 2094000    302.02139   -10174.489            0   -10117.608   -2025.7753    32.817902     34.22419    33.184438    2.4274654    2452.1652    7.3786314 
 2095000    299.85818   -10176.255            0   -10119.782   -2841.8887    32.817902     34.22419    33.184438    2.0875925    2453.4172    6.1489154 
 2096000    296.50052   -10177.314            0   -10121.473    -2585.477    32.817902     34.22419    33.184438    2.3308656    2454.6698    4.9191781 
 2097000     302.5625   -10178.516            0   -10121.533   -1862.4223    32.817902     34.22419    33.184438    2.1486449    2455.9551    3.6894669 
 2098000    312.36662   -10178.033            0   -10119.204   -2570.0691    32.817902     34.22419    33.184438    2.2540785    2457.2761    2.4597359 
 2099000     295.3881   -10178.001            0    -10122.37   -2359.0317    32.817902     34.22419    33.184438    2.1933508    2458.5925    1.2299112 
 2100000    289.52038   -10176.337            0   -10121.811   -2849.2758    32.817902     34.22419    33.184438     2.113735    2459.8374            0 
Loop time of 2459.84 on 80 procs for 2000000 steps with 1458 atoms

Performance: 70.249 ns/day, 0.342 hours/ns, 813.062 timesteps/s
99.3% CPU use with 80 MPI tasks x 1 OpenMP threads

MPI task timing breakdown:
Section |  min time  |  avg time  |  max time  |%varavg| %total
---------------------------------------------------------------
Pair    | 196.24     | 245.48     | 295.45     | 139.9 |  9.98
Kspace  | 1164.3     | 1243.2     | 1306       |  81.2 | 50.54
Neigh   | 4.584      | 5.6548     | 6.7422     |  17.8 |  0.23
Comm    | 908.17     | 933.94     | 979.19     |  53.0 | 37.97
Output  | 1.6404     | 1.6414     | 1.6449     |   0.0 |  0.07
Modify  | 17.712     | 19.078     | 20.577     |  14.0 |  0.78
Other   |            | 10.89      |            |       |  0.44

Nlocal:    18.225 ave 23 max 14 min
Histogram: 2 5 8 12 18 17 8 6 2 2
Nghost:    1773.54 ave 1807 max 1747 min
Histogram: 4 5 16 10 13 10 9 7 3 3
Neighs:    4088.44 ave 5330 max 3045 min
Histogram: 3 5 7 16 15 17 7 7 1 2

Total # of neighbors = 327075
Ave neighs/atom = 224.331
Neighbor list builds = 33033
Dangerous builds = 0

# Final Commands
variable final_energy equal etotal
print "final_energy: ${final_energy}"
final_energy: -10121.811419373
print "END_OF_COMP"
END_OF_COMP
Total wall time: 0:43:14
