LAMMPS (7 Aug 2019)
  using 1 OpenMP thread(s) per MPI task
# Input written to comply with LAMMPS 2017-08-11 00:00:00

# Atomic Configuration
units           metal
boundary        p p p
box tilt large
atom_style      charge
read_data       3x3x3.lmp
  triclinic box = (0 0 0) to (30.8409 30.9399 30.8613) with tilt (-0.0317434 -0.0977723 -0.0884718)
  4 by 5 by 4 MPI processor grid
  reading atoms ...
  1458 atoms
  read_data CPU = 0.022212 secs
group           lithium type 1
459 atoms in group lithium
group           scandium type 2
135 atoms in group scandium
group           chloride type 3
864 atoms in group chloride
variable        T1 equal 300
variable        dt equal 0.001

# Potential Setup
pair_style  buck/coul/long 12.0
pair_coeff * * 0.0 1.0 0.0
pair_coeff 1 1     360.530000  0.161000   0.000000 # Li Li
pair_coeff 1 3     421.040000  0.344000   0.000000 # Li Cl
pair_coeff 3 3    1227.200000  0.321000  14.530000 # Cl Cl
pair_coeff 2 3   12131.350000  0.250700   0.000000 # Sc Cl

kspace_style pppm 1e-05

# General Setup
timestep        0.001

# Thermodynamic Information Output
thermo_style custom step temp epair emol etotal press lx ly lz fmax cpu cpuremain
thermo          1000

# Intial Atom Velocity
velocity all create ${T1} 80800 dist gaussian rot yes
velocity all create 300 80800 dist gaussian rot yes

# Stage 0: npt_equilibriation
restart         0
fix             int all npt aniso 1.0 1.0 0.1 temp ${T1} ${T1} $(100*dt)
fix             int all npt aniso 1.0 1.0 0.1 temp 300 ${T1} $(100*dt)
fix             int all npt aniso 1.0 1.0 0.1 temp 300 300 $(100*dt)
fix             int all npt aniso 1.0 1.0 0.1 temp 300 300 0.10000000000000000555
run             50000
PPPM initialization ...
  using 12-bit tables for long-range coulomb (../kspace.cpp:323)
  G vector (1/distance) = 0.271552
  grid = 30 30 30
  stencil order = 5
  estimated absolute RMS force accuracy = 0.000111037
  estimated relative force accuracy = 7.71111e-06
  using double precision MKL FFT
  3d grid and FFT values/proc = 2548 384
Neighbor list info ...
  update every 1 steps, delay 10 steps, check yes
  max neighbors/atom: 2000, page size: 100000
  master list distance cutoff = 14
  ghost atom cutoff = 14
  binsize = 7, bins = 5 5 5
  1 neighbor lists, perpetual/occasional/extra = 1 0 0
  (1) pair buck/coul/long, perpetual
      attributes: half, newton on
      pair build: half/bin/newton/tri
      stencil: half/bin/3d/newton/tri
      bin: standard
Per MPI rank memory allocation (min/avg/max) = 3.45 | 3.524 | 3.713 Mbytes
Step Temp E_pair E_mol TotEng Press Lx Ly Lz Fmax CPU CPULeft 
       0          300   -9859.8291            0   -9803.3294   -715.17441    30.840886    30.939923    30.861307    2.7005434            0            0 
    1000    306.66638   -10159.223            0   -10101.468   -53.655629    33.565718    33.583713    33.746137    2.2792249      1.37585    67.416707 
    2000    303.94861   -10171.543            0     -10114.3    21.309136    33.584951    33.158574    33.525198    2.2604576     2.937423    70.498152 
    3000    299.21891   -10175.443            0    -10119.09    37.998218    33.209333    33.467927    33.699369    2.6191232    4.4118571     69.11911 
    4000    294.87931   -10180.112            0   -10124.576   -183.55219    33.500712     33.57124    33.280894    2.0797928    5.9304571    68.200268 
    5000    309.12444   -10182.465            0   -10124.247   -162.98127    32.925053    33.645814    33.525255    2.6315392    7.4630651    67.167586 
    6000    298.84887   -10185.551            0   -10129.268    648.85987    33.217709    33.601414    33.417507    2.7696486    8.9579391    65.691554 
    7000    296.82825   -10182.847            0   -10126.945    168.58581    33.397999    33.412989    33.294477     2.946056    10.424334    64.035201 
    8000     298.9622    -10182.73            0   -10126.426   -621.30133    33.143495    33.755383    33.366117    2.4778351    11.898661    62.467976 
    9000    286.32953   -10183.934            0   -10130.009   -20.427014    33.344035     33.69193    33.459421    2.4558227    13.290201    60.544254 
   10000    301.66557    -10187.44            0   -10130.627    1339.7231    33.209546    33.505309    33.243662     2.215857    14.793347    59.173392 
   11000    298.91203   -10187.244            0    -10130.95   -381.10931    33.373973    33.378891    33.347164    2.4882135     16.24021     57.57893 
   12000    301.58813   -10189.092            0   -10132.293    -1534.226    33.457596    33.279554    33.409099    3.6004475    17.644042    55.872803 
   13000     301.5462    -10192.61            0    -10135.82    634.07329    33.223443    33.380516    33.202992    2.6875545    19.126978    54.438325 
   14000    308.02478   -10190.913            0   -10132.902    1834.5275    33.203873    33.401069    33.026423    2.1218462    20.607547    52.990838 
   15000    295.02096   -10189.786            0   -10134.225   -596.65338     33.27826    33.315952    33.362419    2.6963123     22.10072    51.568349 
   16000    292.95528   -10190.214            0   -10135.041    -569.5477     33.23446    33.273994    33.372655    3.5672677    23.495858    49.928701 
   17000    291.72356   -10192.539            0   -10137.598    1285.2753    33.261358    33.007105    33.358925    2.1361581     25.03257    48.592638 
   18000    309.10292   -10192.875            0   -10134.661    410.91635    33.329043    33.213654    33.277672    2.8043129    26.535596    47.174395 
   19000    301.38926   -10191.518            0   -10134.757   -1264.3793    33.478641    33.234014    33.237153    2.9783631    28.050309    45.766295 
   20000    294.63874   -10193.472            0   -10137.982   -577.13253    33.193689    33.309462    33.306794    2.1228481    29.456841    44.185263 
   21000    305.63486   -10194.781            0    -10137.22    653.18755    33.226482    33.452362    33.082599    2.2771078    30.910566    42.686021 
   22000    302.71949   -10193.895            0   -10136.883    275.54784    33.469888    33.166786    33.071392    2.2642297    32.333557    41.151801 
   23000    295.41931   -10193.859            0   -10138.222   -248.02389    33.270102     33.46685    33.066697    2.5636095    33.710412    39.573093 
   24000    308.34421   -10192.955            0   -10134.884   -116.50567    33.334775     33.19012    33.205941    2.3102212    35.134442    38.062314 
   25000    299.20702   -10194.431            0   -10138.081    142.14119    33.141339    33.341229    33.311818    2.4035443    36.496898    36.496899 
   26000    299.39999       -10194            0   -10137.613    220.93793    33.163623    33.311034    33.212385    2.3494097     37.88169    34.967715 
   27000    291.19603   -10194.069            0   -10139.227   -131.42477    33.209527    33.206787     33.33529    2.7582969    39.318249    33.493324 
   28000    299.75253   -10193.924            0   -10137.471   -331.13963     33.06343    33.474548    33.270108    3.7230856     40.65431    31.942673 
   29000    294.02002   -10194.621            0   -10139.247    375.99244    33.283107    33.149678     33.23039    2.5392458    41.999913     30.41373 
   30000     295.0744   -10193.509            0   -10137.937    99.783581    33.218183    33.435497    33.180878    2.3816592    43.458011    28.972008 
   31000    297.97898   -10193.664            0   -10137.545   -520.65072     33.27042    33.260685    33.344987    2.2104494    45.012255    27.588157 
   32000    301.72627   -10192.637            0   -10135.813   -713.91206    33.152456    33.446207    33.285706     2.171569    46.486204     26.14849 
   33000    299.24269   -10194.577            0    -10138.22    683.46143     33.11586    33.425094     33.23444    2.3479627    47.949432    24.701223 
   34000    296.74575   -10194.484            0   -10138.597    548.86736    33.258608    33.378937    33.070885    2.4659486    49.352289    23.224607 
   35000    288.70508   -10191.882            0   -10137.509   -1017.9152    33.323326     33.25587    33.313674    2.3276003    50.710867    21.733229 
   36000    308.03986   -10194.425            0   -10136.411   -921.51985     33.30496    33.232529    33.287943    2.2264965    52.187346    20.295079 
   37000    304.25697   -10194.818            0   -10137.517    774.59636    33.145379    33.050414    33.326787    2.5640516    53.541805    18.811986 
   38000    303.81608   -10195.006            0   -10137.787     1280.564    33.249222    33.316588    33.215483    2.6604076    54.995253    17.366922 
   39000     299.4254   -10194.488            0   -10138.097   -515.24235    33.305444    33.237932    33.252894    3.1323038    56.438259    15.918484 
   40000    286.92288   -10194.992            0   -10140.955   -1337.1358    33.364912    33.493731    33.150048    2.4905941    57.901419    14.475355 
   41000    306.48112   -10193.374            0   -10135.654    451.78928    33.274226    33.499612    32.957843    2.2897798    59.263532    13.009068 
   42000     299.4213   -10196.216            0   -10139.825      1107.63     33.16578    33.497848    33.055601    2.6576597    60.655712    11.553469 
   43000    287.01553   -10194.552            0   -10140.497   -282.16314    33.254022    33.549984    33.089778    2.6488149    62.003565    10.093604 
   44000      299.278   -10197.159            0   -10140.796   -1364.2125    33.106232    33.652429    33.064457    2.3743437     63.39465    8.6447252 
   45000    309.31885   -10196.954            0     -10138.7   -8.9333357    33.194447    33.549644    33.110189    2.5025858    64.827624    7.2030694 
   46000    311.70534    -10196.55            0   -10137.846    1104.9409    33.214944    33.543421    32.945859    2.5538343    66.384651    5.7725784 
   47000    295.13209   -10197.804            0   -10142.221    194.44686    33.106401    33.638156    33.101493    2.9717539    67.878519    4.3326715 
   48000    303.45426   -10196.451            0   -10139.301   -598.73033    33.166307    33.658186     32.95186    2.9248123    69.306349    2.8877646 
   49000    306.17018   -10193.973            0   -10136.311   -208.44763     33.06046    33.521484    33.074535    3.2817743    70.645965    1.4417544 
   50000    308.72327    -10196.02            0   -10137.877    1415.1631    32.914457    33.522369    33.090493    2.4356637    72.007174            0 
Loop time of 72.0072 on 80 procs for 50000 steps with 1458 atoms

Performance: 59.994 ns/day, 0.400 hours/ns, 694.375 timesteps/s
99.2% CPU use with 80 MPI tasks x 1 OpenMP threads

MPI task timing breakdown:
Section |  min time  |  avg time  |  max time  |%varavg| %total
---------------------------------------------------------------
Pair    | 4.5645     | 5.9702     | 7.2371     |  19.8 |  8.29
Kspace  | 37.716     | 38.917     | 40.423     |   8.1 | 54.05
Neigh   | 0.13572    | 0.16925    | 0.19234    |   3.5 |  0.24
Comm    | 21.551     | 21.844     | 22.088     |   2.6 | 30.34
Output  | 0.0025406  | 0.0025825  | 0.0036232  |   0.2 |  0.00
Modify  | 3.5827     | 4.1789     | 4.4938     |  15.0 |  5.80
Other   |            | 0.9256     |            |       |  1.29

Nlocal:    18.225 ave 24 max 12 min
Histogram: 2 3 8 4 15 23 11 8 3 3
Nghost:    1819.1 ave 1870 max 1776 min
Histogram: 3 11 13 10 12 5 9 6 7 4
Neighs:    4148.4 ave 5396 max 2721 min
Histogram: 2 3 8 5 15 13 19 9 2 4

Total # of neighbors = 331872
Ave neighs/atom = 227.621
Neighbor list builds = 986
Dangerous builds = 6

# Stage 1: nvt_equilibriation
unfix int
restart         0
fix             int all nvt temp ${T1} ${T1} $(100*dt) tchain 2
fix             int all nvt temp 300 ${T1} $(100*dt) tchain 2
fix             int all nvt temp 300 300 $(100*dt) tchain 2
fix             int all nvt temp 300 300 0.10000000000000000555 tchain 2
run             100000
PPPM initialization ...
  using 12-bit tables for long-range coulomb (../kspace.cpp:323)
  G vector (1/distance) = 0.266818
  grid = 30 30 30
  stencil order = 5
  estimated absolute RMS force accuracy = 0.000139708
  estimated relative force accuracy = 9.70221e-06
  using double precision MKL FFT
  3d grid and FFT values/proc = 2548 384
Per MPI rank memory allocation (min/avg/max) = 3.449 | 3.69 | 3.703 Mbytes
Step Temp E_pair E_mol TotEng Press Lx Ly Lz Fmax CPU CPULeft 
   50000    308.72327   -10196.013            0    -10137.87    1417.3632    32.914457    33.522369    33.090493    2.4357007            0            0 
   51000     312.5681   -10199.247            0    -10140.38    340.89773    32.914457    33.522369    33.090493    1.9572903    1.2806759    126.78703 
   52000    297.15602   -10197.075            0   -10141.111    691.42887    32.914457    33.522369    33.090493    2.6218667    2.5726171    126.05828 
   53000    289.34055   -10198.214            0   -10143.722    14.782676    32.914457    33.522369    33.090493    2.3659597    3.9046431    126.25013 
   54000    299.44012    -10196.96            0   -10140.566    1725.0313    32.914457    33.522369    33.090493    2.5762367    5.2173219    125.21572 
   55000    307.33853   -10199.671            0    -10141.79    2127.6413    32.914457    33.522369    33.090493    2.6373156    6.4679949     122.8919 
   56000    309.41886   -10198.187            0   -10139.914    581.82294    32.914457    33.522369    33.090493    2.3679115    7.7277389    121.06793 
   57000    296.17006   -10196.143            0   -10140.365    406.27213    32.914457    33.522369    33.090493    3.3735211    8.9593649    119.03156 
   58000    293.68418   -10197.815            0   -10142.505    856.53786    32.914457    33.522369    33.090493    2.4102489      10.2393    117.75196 
   59000    303.88467   -10197.113            0   -10139.882    383.62341    32.914457    33.522369    33.090493    2.5141323    11.581913    117.10602 
   60000    301.56806   -10198.531            0   -10141.736    490.70558    32.914457    33.522369    33.090493    2.3907351    12.916408    116.24768 
   61000      298.151   -10198.401            0   -10142.249    535.82954    32.914457    33.522369    33.090493    2.2975949    14.379814    116.34577 
   62000    300.55454   -10198.942            0   -10142.337     270.8727    32.914457    33.522369    33.090493    2.1917533    15.718759    115.27091 
   63000    299.96625   -10197.547            0   -10141.054    836.24511    32.914457    33.522369    33.090493    2.4477693    17.008365    113.82522 
   64000    301.16018    -10201.03            0   -10144.312    927.49068    32.914457    33.522369    33.090493    2.5374063    18.293631    112.37517 
   65000    300.49835   -10197.292            0   -10140.698    164.50435    32.914457    33.522369    33.090493    2.3696686    19.641628    111.30256 
   66000    297.01862   -10199.501            0   -10143.563   -87.973097    32.914457    33.522369    33.090493    2.1158588    20.918539    109.82234 
   67000    305.84532   -10197.842            0   -10140.242    443.39012    32.914457    33.522369    33.090493    2.3035907    22.144563    108.11758 
   68000    284.11429   -10199.285            0   -10145.777    45.246857    32.914457    33.522369    33.090493     2.643373    23.484941    106.98696 
   69000    298.76343   -10195.576            0   -10139.309   -120.11299    32.914457    33.522369    33.090493     2.374934    24.720617     105.3879 
   70000    293.16015   -10198.306            0   -10143.095    405.34385    32.914457    33.522369    33.090493    2.8509203    26.009153    104.03662 
   71000    308.52156   -10197.898            0   -10139.794    159.38167    32.914457    33.522369    33.090493    3.0780971    27.273002    102.59844 
   72000     304.4594   -10201.096            0   -10143.756   -119.58968    32.914457    33.522369    33.090493    2.3758517     28.57845     101.3236 
   73000     304.0777    -10198.87            0   -10141.603   -388.40282    32.914457    33.522369    33.090493    2.6212274    29.822895    99.841869 
   74000    297.63139   -10201.126            0   -10145.073    1233.6512    32.914457    33.522369    33.090493    2.0963367    31.051064    98.328372 
   75000    302.17833   -10199.073            0   -10142.163    446.12795    32.914457    33.522369    33.090493     2.438895     32.33328    96.999843 
   76000    308.85993   -10199.476            0   -10141.307    641.84125    32.914457    33.522369    33.090493    2.6794103    33.682426    95.865369 
   77000    303.06987   -10199.725            0   -10142.648    649.53069    32.914457    33.522369    33.090493    2.9362521    35.000395      94.6307 
   78000    294.79284   -10197.867            0   -10142.348    918.80058    32.914457    33.522369    33.090493    2.7754549     36.30731    93.361657 
   79000    305.91602   -10200.513            0   -10142.899   -342.75047    32.914457    33.522369    33.090493    2.7172233    37.642695    92.159704 
   80000     298.1064   -10197.139            0   -10140.996    116.42449    32.914457    33.522369    33.090493    3.0216804    38.937134    90.853315 
   81000    295.92082   -10199.297            0   -10143.566    113.36138    32.914457    33.522369    33.090493     2.340608    40.214179    89.508981 
   82000    288.12854   -10200.476            0   -10146.212   -353.38601    32.914457    33.522369    33.090493    2.8809288     41.42022     88.01797 
   83000    306.75197   -10198.663            0   -10140.892     56.64627    32.914457    33.522369    33.090493    2.3138086    42.728988    86.752796 
   84000     299.4628   -10199.689            0   -10143.291    283.27599    32.914457    33.522369    33.090493    2.5312057    43.957316    85.328909 
   85000    287.63046   -10197.899            0   -10143.729    857.09352    32.914457    33.522369    33.090493    3.0032146       45.244    84.024573 
   86000     302.5416   -10198.384            0   -10141.405    634.73723    32.914457    33.522369    33.090493    2.2617845     46.45622    82.588837 
   87000     309.8925   -10198.941            0   -10140.579    717.69742    32.914457    33.522369    33.090493    2.4132717    47.630704     81.10093 
   88000    295.54398   -10199.966            0   -10144.306   -1029.1512    32.914457    33.522369    33.090493    2.4252006    48.864698    79.726614 
   89000    300.80799   -10198.269            0   -10141.617   -1162.1466    32.914457    33.522369    33.090493    2.2720162    50.094188    78.352449 
   90000    295.62556    -10198.98            0   -10143.304   -914.74035    32.914457    33.522369    33.090493    2.4146491    51.417711    77.126568 
   91000     304.5079   -10199.705            0   -10142.357     1176.644    32.914457    33.522369    33.090493    2.4258192    52.754316    75.914749 
   92000     307.4528   -10199.616            0   -10141.713   -46.567453    32.914457    33.522369    33.090493      2.80876     54.10672    74.718805 
   93000    295.55425    -10199.44            0   -10143.777    1391.5131    32.914457    33.522369    33.090493    2.5641147    55.424538    73.469738 
   94000    299.28136   -10200.512            0   -10144.148    265.07306    32.914457    33.522369    33.090493     2.118189    56.761361    72.241734 
   95000    299.50167   -10200.304            0   -10143.898    1586.5936    32.914457    33.522369    33.090493    2.2171844    57.966442    70.847875 
   96000    303.53919   -10200.518            0   -10143.352    700.44845    32.914457    33.522369    33.090493    2.8406064    59.261585    69.567949 
   97000     295.7524   -10198.887            0   -10143.187    728.67825    32.914457    33.522369    33.090493    2.8881121    60.549403    68.279115 
   98000     295.1892   -10202.243            0   -10146.649    17.712569    32.914457    33.522369    33.090493    2.2622809    61.786045    66.934883 
   99000    299.06014       -10199            0   -10142.677    241.71276    32.914457    33.522369    33.090493    2.6793045    63.085685    65.660612 
  100000    292.48195   -10201.941            0   -10146.858    166.41881    32.914457    33.522369    33.090493     2.557354    64.280876    64.280877 
  101000    290.08701   -10200.342            0   -10145.709     3.844798    32.914457    33.522369    33.090493    2.1472873    65.598954    63.026447 
  102000      291.608   -10199.225            0   -10144.306   -112.31796    32.914457    33.522369    33.090493    2.5779212    66.885567    61.740524 
  103000    309.47171   -10199.433            0   -10141.149    -599.6028    32.914457    33.522369    33.090493    2.1891776    68.149134    60.434138 
  104000    302.04464   -10201.291            0   -10144.406   -242.08829    32.914457    33.522369    33.090493    2.5841098    69.424957    59.139779 
  105000    301.33716   -10198.535            0   -10141.784   -852.27301    32.914457    33.522369    33.090493    2.0892838    70.663467    57.815565 
  106000    305.73163   -10199.795            0   -10142.216   -301.84031    32.914457    33.522369    33.090493    2.1385367    72.009189    56.578649 
  107000    292.08843   -10201.413            0   -10146.404   -1088.0541    32.914457    33.522369    33.090493    2.6746051    73.347114    55.332034 
  108000    298.79983   -10200.434            0   -10144.161   -59.204177    32.914457    33.522369    33.090493    2.3899571    74.636926     54.04743 
  109000    302.44097   -10200.749            0   -10143.789    15.131445    32.914457    33.522369    33.090493    2.3623015    75.942586    52.773662 
  110000    305.83804   -10201.901            0   -10144.302   -141.43445    32.914457    33.522369    33.090493    2.8762564    77.249233    51.499489 
  111000    290.97987   -10200.902            0   -10146.101   -135.49935    32.914457    33.522369    33.090493    2.1896184     78.56027    50.227059 
  112000    303.73164   -10198.674            0   -10141.471    676.78122    32.914457    33.522369    33.090493     2.215288    79.827521    48.926546 
  113000    308.47791   -10199.448            0   -10141.352    595.49564    32.914457    33.522369    33.090493    2.3095428    81.136694     47.65171 
  114000    302.81672   -10201.287            0   -10144.257    488.14119    32.914457    33.522369    33.090493    2.8192925    82.486529    46.398673 
  115000    297.39576   -10201.285            0   -10145.276    460.82007    32.914457    33.522369    33.090493    2.5594016    83.675458    45.056016 
  116000    304.92421   -10198.472            0   -10141.045   -401.51167    32.914457    33.522369    33.090493    3.2707616    84.900253    43.736494 
  117000    292.85932   -10199.852            0   -10144.697    644.11019    32.914457    33.522369    33.090493     2.429021    86.145969    42.430105 
  118000     307.1389   -10199.717            0   -10141.872    389.27219    32.914457    33.522369    33.090493    2.5662267    87.389767    41.124597 
  119000    305.33681   -10200.563            0   -10143.058    1348.2775    32.914457    33.522369    33.090493    3.0177311    88.608653    39.809685 
  120000    301.67046   -10201.549            0   -10144.735    351.79175    32.914457    33.522369    33.090493    2.2826139    89.887179    38.523077 
  121000    300.66166   -10201.298            0   -10144.674    151.99424    32.914457    33.522369    33.090493     2.497258     91.16413    37.236053 
  122000    298.96639    -10200.46            0   -10144.155    482.94432    32.914457    33.522369    33.090493    2.6545497    92.487463    35.967347 
  123000    294.59042   -10200.832            0   -10145.351    1197.7652    32.914457    33.522369    33.090493    2.6912682       93.835    34.706096 
  124000    301.45628    -10200.52            0   -10143.746    371.19603    32.914457    33.522369    33.090493    1.9171858    95.140433     33.42772 
  125000    301.07458   -10202.415            0   -10145.713    691.72598    32.914457    33.522369    33.090493    2.4130328    96.480897    32.160299 
  126000    307.97265   -10199.986            0   -10141.985    675.40505    32.914457    33.522369    33.090493    2.4602585    97.747626    30.867672 
  127000    304.06293   -10200.654            0   -10143.389   -138.17354    32.914457    33.522369    33.090493    2.3129412    99.026618     29.57938 
  128000    284.00931   -10201.853            0   -10148.365    551.60304    32.914457    33.522369    33.090493    2.3282944     100.2737    28.282326 
  129000    294.91669   -10199.465            0   -10143.923    1167.8107    32.914457    33.522369    33.090493    2.4410666    101.56501    26.998295 
  130000    293.45734    -10200.58            0   -10145.313    713.43644    32.914457    33.522369    33.090493    2.0959313    102.82435    25.706088 
  131000    315.85643   -10200.379            0   -10140.893    302.62892    32.914457    33.522369    33.090493    2.3816037    104.09111    24.416434 
  132000    296.34382   -10201.345            0   -10145.534   -177.57999    32.914457    33.522369    33.090493    2.2181682    105.45737     23.14918 
  133000     299.2939   -10199.735            0   -10143.368    438.14503    32.914457    33.522369    33.090493    2.4549712    106.75759    21.866012 
  134000    313.09256   -10201.318            0   -10142.353   -603.06011    32.914457    33.522369    33.090493    2.3819147    107.95077    20.562051 
  135000    293.24621   -10201.496            0   -10146.269    491.42356    32.914457    33.522369    33.090493    2.9054872    109.16657    19.264689 
  136000    309.41918   -10202.681            0   -10144.408   -509.84881    32.914457    33.522369    33.090493    2.1005604    110.40449    17.972824 
  137000    299.17929   -10201.783            0   -10145.438   -162.46862    32.914457    33.522369    33.090493    2.9337562    111.66145    16.685045 
  138000    296.86486   -10201.306            0   -10145.397    287.80206    32.914457    33.522369    33.090493    2.1697811    112.94975    15.402238 
  139000    305.34522   -10201.743            0   -10144.237    1021.8362    32.914457    33.522369    33.090493    3.1733492     114.2835    14.124927 
  140000       294.76   -10200.919            0   -10145.407    189.12396    32.914457    33.522369    33.090493    2.4309225    115.61111     12.84568 
  141000    295.46617   -10202.121            0   -10146.475   -999.63099    32.914457    33.522369    33.090493    2.3452421    116.85591    11.557178 
  142000    296.93551   -10201.069            0   -10145.147    63.514949    32.914457    33.522369    33.090493    2.5012206    118.12185    10.271465 
  143000     293.8574   -10202.576            0   -10147.234   -52.006538    32.914457    33.522369    33.090493    2.2686351    119.37133    8.9849387 
  144000    305.19277   -10202.178            0     -10144.7    169.07527    32.914457    33.522369    33.090493    2.6598011    120.62834    7.6996815 
  145000    295.61478    -10203.17            0   -10147.496   -42.851152    32.914457    33.522369    33.090493    2.5262296     121.9027    6.4159318 
  146000    302.43602   -10202.354            0   -10145.395    306.21875    32.914457    33.522369    33.090493    2.4309807      123.105    5.1293751 
  147000    305.80565   -10201.558            0   -10143.965    923.18016    32.914457    33.522369    33.090493    2.8026136    124.31956     3.844935 
  148000    291.30836   -10202.148            0   -10147.286    83.769618    32.914457    33.522369    33.090493    2.1961064    125.52622    2.5617595 
  149000    299.77379   -10201.766            0   -10145.309    -659.7407    32.914457    33.522369    33.090493    2.7985692    126.76603     1.280465 
  150000    304.01063   -10202.242            0   -10144.987    172.83703    32.914457    33.522369    33.090493    2.6814388    128.01111            0 
Loop time of 128.011 on 80 procs for 100000 steps with 1458 atoms

Performance: 67.494 ns/day, 0.356 hours/ns, 781.182 timesteps/s
99.2% CPU use with 80 MPI tasks x 1 OpenMP threads

MPI task timing breakdown:
Section |  min time  |  avg time  |  max time  |%varavg| %total
---------------------------------------------------------------
Pair    | 8.3656     | 12.674     | 15.746     |  37.5 |  9.90
Kspace  | 57.239     | 61.287     | 65.816     |  19.0 | 47.88
Neigh   | 0.21285    | 0.29151    | 0.33564    |   4.5 |  0.23
Comm    | 50.654     | 52.317     | 54.663     |  10.2 | 40.87
Output  | 0.0050442  | 0.0050801  | 0.0063727  |   0.2 |  0.00
Modify  | 0.81484    | 0.90377    | 0.98475    |   3.9 |  0.71
Other   |            | 0.5334     |            |       |  0.42

Nlocal:    18.225 ave 23 max 12 min
Histogram: 3 4 6 13 4 13 12 4 11 10
Nghost:    1815.97 ave 1864 max 1791 min
Histogram: 9 15 18 15 3 7 7 2 3 1
Neighs:    4170.61 ave 5388 max 2765 min
Histogram: 3 4 6 14 7 15 8 12 5 6

Total # of neighbors = 333649
Ave neighs/atom = 228.84
Neighbor list builds = 1624
Dangerous builds = 0

# Final Commands
variable final_energy equal etotal
print "final_energy: ${final_energy}"
final_energy: -10144.9868557717
print "END_OF_COMP"
END_OF_COMP
Total wall time: 0:03:20
