LAMMPS (7 Aug 2019)
  using 1 OpenMP thread(s) per MPI task
# Input written to comply with LAMMPS 2017-08-11 00:00:00

# Atomic Configuration
units           metal
boundary        p p p
box tilt large
atom_style      charge
read_data       3x3x3.lmp
  triclinic box = (0 0 0) to (30.8409 30.9399 30.8613) with tilt (-0.0317434 -0.0977723 -0.0884718)
  4 by 5 by 4 MPI processor grid
  reading atoms ...
  1458 atoms
  read_data CPU = 0.0145819 secs
group           lithium type 1
459 atoms in group lithium
group           scandium type 2
135 atoms in group scandium
group           chloride type 3
864 atoms in group chloride
variable        T1 equal 300
variable        dt equal 0.001

# Potential Setup
pair_style  buck/coul/long 12.0
pair_coeff * * 0.0 1.0 0.0
pair_coeff 1 1     360.530000  0.161000   0.000000 # Li Li
pair_coeff 1 3     421.040000  0.344000   0.000000 # Li Cl
pair_coeff 3 3    1227.200000  0.321000  14.530000 # Cl Cl
pair_coeff 2 3   12131.350000  0.250700   0.000000 # Sc Cl

kspace_style pppm 1e-05

# General Setup
timestep        0.001

# Thermodynamic Information Output
thermo_style custom step temp epair emol etotal press lx ly lz fmax cpu cpuremain
thermo          1000

# Intial Atom Velocity
velocity all create ${T1} 80800 dist gaussian rot yes
velocity all create 300 80800 dist gaussian rot yes

# Stage 0: npt_equilibriation
restart         0
fix             int all npt aniso 1.0 1.0 0.1 temp ${T1} ${T1} $(100*dt)
fix             int all npt aniso 1.0 1.0 0.1 temp 300 ${T1} $(100*dt)
fix             int all npt aniso 1.0 1.0 0.1 temp 300 300 $(100*dt)
fix             int all npt aniso 1.0 1.0 0.1 temp 300 300 0.10000000000000000555
run             50000
PPPM initialization ...
  using 12-bit tables for long-range coulomb (../kspace.cpp:323)
  G vector (1/distance) = 0.271552
  grid = 30 30 30
  stencil order = 5
  estimated absolute RMS force accuracy = 0.000111037
  estimated relative force accuracy = 7.71111e-06
  using double precision MKL FFT
  3d grid and FFT values/proc = 2548 384
Neighbor list info ...
  update every 1 steps, delay 10 steps, check yes
  max neighbors/atom: 2000, page size: 100000
  master list distance cutoff = 14
  ghost atom cutoff = 14
  binsize = 7, bins = 5 5 5
  1 neighbor lists, perpetual/occasional/extra = 1 0 0
  (1) pair buck/coul/long, perpetual
      attributes: half, newton on
      pair build: half/bin/newton/tri
      stencil: half/bin/3d/newton/tri
      bin: standard
Per MPI rank memory allocation (min/avg/max) = 3.45 | 3.524 | 3.713 Mbytes
Step Temp E_pair E_mol TotEng Press Lx Ly Lz Fmax CPU CPULeft 
       0          300   -9859.8291            0   -9803.3294   -715.17441    30.840886    30.939923    30.861307    2.7005434            0            0 
    1000    306.66638   -10159.223            0   -10101.468   -53.655629    33.565718    33.583713    33.746137    2.2792249     1.385946    67.911356 
    2000    303.94861   -10171.543            0     -10114.3    21.309136    33.584951    33.158574    33.525198    2.2604576    2.8079979    67.391979 
    3000    299.21891   -10175.443            0    -10119.09    37.998218    33.209333    33.467927    33.699369    2.6191232    4.1591489    65.160019 
    4000    294.87931   -10180.112            0   -10124.576   -183.55219    33.500712     33.57124    33.280894    2.0797928    5.6304481    64.750164 
    5000    309.12444   -10182.465            0   -10124.247   -162.98127    32.925053    33.645814    33.525255    2.6315392     7.043613    63.392527 
    6000    298.84887   -10185.551            0   -10129.268    648.85987    33.217709    33.601414    33.417507    2.7696486    8.5542161    62.730925 
    7000    296.82825   -10182.847            0   -10126.945    168.58581    33.397999    33.412989    33.294477     2.946056    10.045188    61.706162 
    8000     298.9622    -10182.73            0   -10126.426   -621.30133    33.143495    33.755383    33.366117    2.4778351    11.592256    60.859349 
    9000    286.32953   -10183.934            0   -10130.009   -20.427014    33.344035     33.69193    33.459421    2.4558227    13.077117    59.573537 
   10000    301.66557    -10187.44            0   -10130.627    1339.7231    33.209546    33.505309    33.243662     2.215857    14.591287    58.365152 
   11000    298.91203   -10187.244            0    -10130.95   -381.10931    33.373973    33.378891    33.347164    2.4882135    16.125656    57.172784 
   12000    301.58813   -10189.092            0   -10132.293    -1534.226    33.457596    33.279554    33.409099    3.6004475    17.670774    55.957454 
   13000     301.5462    -10192.61            0    -10135.82    634.07329    33.223443    33.380516    33.202992    2.6875545    19.204707    54.659554 
   14000    308.02478   -10190.913            0   -10132.902    1834.5275    33.203873    33.401069    33.026423    2.1218462    20.595926    52.960955 
   15000    295.02096   -10189.786            0   -10134.225   -596.65338     33.27826    33.315952    33.362419    2.6963123    21.970616    51.264773 
   16000    292.95528   -10190.214            0   -10135.041    -569.5477     33.23446    33.273994    33.372655    3.5672677    23.370669    49.662674 
   17000    291.72356   -10192.539            0   -10137.598    1285.2753    33.261358    33.007105    33.358925    2.1361581    24.808246    48.157186 
   18000    309.10292   -10192.875            0   -10134.661    410.91635    33.329043    33.213654    33.277672    2.8043129    26.188633    46.557571 
   19000    301.38926   -10191.518            0   -10134.757   -1264.3793    33.478641    33.234014    33.237153    2.9783631    27.596834    45.026415 
   20000    294.63874   -10193.472            0   -10137.982   -577.13253    33.193689    33.309462    33.306794    2.1228481    28.969816    43.454724 
   21000    305.63486   -10194.781            0    -10137.22    653.18755    33.226482    33.452362    33.082599    2.2771078    30.383803    41.958587 
   22000    302.71949   -10193.895            0   -10136.883    275.54784    33.469888    33.166786    33.071392    2.2642297      31.7837    40.451983 
   23000    295.41931   -10193.859            0   -10138.222   -248.02389    33.270102     33.46685    33.066697    2.5636095    33.116794    38.876238 
   24000    308.34421   -10192.955            0   -10134.884   -116.50567    33.334775     33.19012    33.205941    2.3102212    34.598378    37.481577 
   25000    299.20702   -10194.431            0   -10138.081    142.14119    33.141339    33.341229    33.311818    2.4035443    36.053495    36.053496 
   26000    299.39999       -10194            0   -10137.613    220.93793    33.163623    33.311034    33.212385    2.3494097    37.450316    34.569524 
   27000    291.19603   -10194.069            0   -10139.227   -131.42477    33.209527    33.206787     33.33529    2.7582969     38.82817    33.075849 
   28000    299.75253   -10193.924            0   -10137.471   -331.13963     33.06343    33.474548    33.270108    3.7230856    40.170081    31.562207 
   29000    294.02002   -10194.621            0   -10139.247    375.99244    33.283107    33.149678     33.23039    2.5392458    41.607239    30.129381 
   30000     295.0744   -10193.509            0   -10137.937    99.783581    33.218183    33.435497    33.180878    2.3816592    42.929009     28.61934 
   31000    297.97898   -10193.664            0   -10137.545   -520.65072     33.27042    33.260685    33.344987    2.2104494    44.260212    27.127227 
   32000    301.72627   -10192.637            0   -10135.813   -713.91206    33.152456    33.446207    33.285706     2.171569    45.640845    25.672976 
   33000    299.24269   -10194.577            0    -10138.22    683.46143     33.11586    33.425094     33.23444    2.3479627    46.995463    24.209785 
   34000    296.74575   -10194.484            0   -10138.597    548.86736    33.258608    33.378937    33.070885    2.4659486    48.396922    22.775023 
   35000    288.70508   -10191.882            0   -10137.509   -1017.9152    33.323326     33.25587    33.313674    2.3276003    49.797016    21.341579 
   36000    308.03986   -10194.425            0   -10136.411   -921.51985     33.30496    33.232529    33.287943    2.2264965    51.282654    19.943255 
   37000    304.25697   -10194.818            0   -10137.517    774.59636    33.145379    33.050414    33.326787    2.5640516    52.774537    18.542405 
   38000    303.81608   -10195.006            0   -10137.787     1280.564    33.249222    33.316588    33.215483    2.6604076    54.243554    17.129544 
   39000     299.4254   -10194.488            0   -10138.097   -515.24235    33.305444    33.237932    33.252894    3.1323038    55.654637    15.697462 
   40000    286.92288   -10194.992            0   -10140.955   -1337.1358    33.364912    33.493731    33.150048    2.4905941    57.158698    14.289675 
   41000    306.48112   -10193.374            0   -10135.654    451.78928    33.274226    33.499612    32.957843    2.2897798    58.663978    12.877459 
   42000     299.4213   -10196.216            0   -10139.825      1107.63     33.16578    33.497848    33.055601    2.6576597    60.088892    11.445503 
   43000    287.01553   -10194.552            0   -10140.497   -282.16314    33.254022    33.549984    33.089778    2.6488149    61.460001    10.005117 
   44000      299.278   -10197.159            0   -10140.796   -1364.2125    33.106232    33.652429    33.064457    2.3743437    62.832923     8.568126 
   45000    309.31885   -10196.954            0     -10138.7   -8.9333357    33.194447    33.549644    33.110189    2.5025858    64.203997    7.1337776 
   46000    311.70534    -10196.55            0   -10137.846    1104.9409    33.214944    33.543421    32.945859    2.5538343    65.545422     5.699602 
   47000    295.13209   -10197.804            0   -10142.221    194.44686    33.106401    33.638156    33.101493    2.9717539    66.902972    4.2704025 
   48000    303.45426   -10196.451            0   -10139.301   -598.73033    33.166307    33.658186     32.95186    2.9248123    68.246824    2.8436177 
   49000    306.17018   -10193.973            0   -10136.311   -208.44763     33.06046    33.521484    33.074535    3.2817743    69.571017    1.4198167 
   50000    308.72327    -10196.02            0   -10137.877    1415.1631    32.914457    33.522369    33.090493    2.4356637     71.02548            0 
Loop time of 71.0255 on 80 procs for 50000 steps with 1458 atoms

Performance: 60.823 ns/day, 0.395 hours/ns, 703.972 timesteps/s
99.1% CPU use with 80 MPI tasks x 1 OpenMP threads

MPI task timing breakdown:
Section |  min time  |  avg time  |  max time  |%varavg| %total
---------------------------------------------------------------
Pair    | 4.5966     | 5.9765     | 6.9036     |  19.0 |  8.41
Kspace  | 37.188     | 38.083     | 39.578     |   7.9 | 53.62
Neigh   | 0.13465    | 0.16912    | 0.19197    |   3.5 |  0.24
Comm    | 21.491     | 21.721     | 21.984     |   2.6 | 30.58
Output  | 0.0025856  | 0.0026345  | 0.0037956  |   0.3 |  0.00
Modify  | 3.5657     | 4.1612     | 4.4379     |  15.5 |  5.86
Other   |            | 0.9124     |            |       |  1.28

Nlocal:    18.225 ave 24 max 12 min
Histogram: 2 3 8 4 15 23 11 8 3 3
Nghost:    1819.1 ave 1870 max 1776 min
Histogram: 3 11 13 10 12 5 9 6 7 4
Neighs:    4148.4 ave 5396 max 2721 min
Histogram: 2 3 8 5 15 13 19 9 2 4

Total # of neighbors = 331872
Ave neighs/atom = 227.621
Neighbor list builds = 986
Dangerous builds = 6

# Stage 1: nvt_equilibriation
unfix int
restart         0
fix             int all nvt temp ${T1} ${T1} $(100*dt) drag 0.2
fix             int all nvt temp 300 ${T1} $(100*dt) drag 0.2
fix             int all nvt temp 300 300 $(100*dt) drag 0.2
fix             int all nvt temp 300 300 0.10000000000000000555 drag 0.2
run             100000
PPPM initialization ...
  using 12-bit tables for long-range coulomb (../kspace.cpp:323)
  G vector (1/distance) = 0.266818
  grid = 30 30 30
  stencil order = 5
  estimated absolute RMS force accuracy = 0.000139708
  estimated relative force accuracy = 9.70221e-06
  using double precision MKL FFT
  3d grid and FFT values/proc = 2548 384
Per MPI rank memory allocation (min/avg/max) = 3.449 | 3.69 | 3.703 Mbytes
Step Temp E_pair E_mol TotEng Press Lx Ly Lz Fmax CPU CPULeft 
   50000    308.72327   -10196.013            0    -10137.87    1417.3632    32.914457    33.522369    33.090493    2.4357007            0            0 
   51000     308.7982   -10199.949            0   -10141.793    258.74287    32.914457    33.522369    33.090493    1.9624625    1.2645209    125.18757 
   52000    299.80323   -10197.598            0   -10141.136   -32.110578    32.914457    33.522369    33.090493    2.6319125    2.4982021     122.4119 
   53000    318.65805   -10199.011            0   -10138.998    984.51739    32.914457    33.522369    33.090493    2.4365502     3.782331    122.29537 
   54000    294.77525   -10196.922            0   -10141.406    828.08212    32.914457    33.522369    33.090493    3.3100262    5.0137911    120.33101 
   55000    301.69449   -10197.557            0   -10140.738   -435.09244    32.914457    33.522369    33.090493    2.0944999     6.308948    119.87003 
   56000    297.19112   -10195.016            0   -10139.046    468.47201    32.914457    33.522369    33.090493    3.0586278    7.6641281    120.07134 
   57000    297.64749   -10198.588            0   -10142.531    92.648892    32.914457    33.522369    33.090493    2.3519959    8.9346459    118.70315 
   58000    306.65495   -10199.436            0   -10141.683   -312.12084    32.914457    33.522369    33.090493    2.4150715    10.244301    117.80947 
   59000    303.04411   -10197.551            0   -10140.479     970.9193    32.914457    33.522369    33.090493    2.6978741    11.523087    116.51122 
   60000     291.5835   -10197.596            0   -10142.681    1203.0333    32.914457    33.522369    33.090493    2.7274013    12.764079    114.87672 
   61000    298.37133   -10197.309            0   -10141.116    696.64965    32.914457    33.522369    33.090493    2.7749053    13.944396    112.82285 
   62000    305.39865   -10197.081            0   -10139.565    897.46881    32.914457    33.522369    33.090493    3.2432433    15.225358    111.65263 
   63000    301.85359    -10198.85            0   -10142.002    -691.2084    32.914457    33.522369    33.090493    2.7032934    16.432901    109.97404 
   64000    300.55643   -10198.079            0   -10141.475    107.75021    32.914457    33.522369    33.090493    2.3709465    17.773599    109.18069 
   65000    298.26697   -10197.339            0   -10141.166    684.10682    32.914457    33.522369    33.090493     2.322755    19.116606    108.32744 
   66000    296.32157   -10200.082            0   -10144.275    875.58074    32.914457    33.522369    33.090493    2.2877315     20.42442    107.22821 
   67000    311.43478   -10198.801            0   -10140.148   -551.47425    32.914457    33.522369    33.090493    2.7556185    21.797457    106.42288 
   68000    294.59461   -10200.116            0   -10144.634    967.06956    32.914457    33.522369    33.090493    2.2455899    23.194595    105.66427 
   69000    301.88866    -10200.03            0   -10143.174    651.12197    32.914457    33.522369    33.090493    2.7191034    24.501975    104.45579 
   70000    297.22834   -10199.065            0   -10143.087   -21.325125    32.914457    33.522369    33.090493    2.5726862    25.879105    103.51642 
   71000    301.64778   -10199.888            0   -10143.078     582.0416    32.914457    33.522369    33.090493    2.7565703    27.237057    102.46322 
   72000    297.26882   -10199.223            0   -10143.238    1096.4778    32.914457    33.522369    33.090493    2.5659561    28.569126    101.29054 
   73000    301.49516   -10196.698            0   -10139.917    341.27744    32.914457    33.522369    33.090493    2.5159803    29.861359    99.970637 
   74000    292.59044    -10200.62            0   -10145.516   -127.81581    32.914457    33.522369    33.090493    2.3880379    31.192798    98.777197 
   75000    297.65031   -10198.321            0   -10142.264    605.18352    32.914457    33.522369    33.090493    2.0979392    32.443193    97.329582 
   76000    294.93185   -10199.241            0   -10143.696    951.03645    32.914457    33.522369    33.090493    2.9155197    33.657411    95.794173 
   77000    306.53821   -10199.242            0   -10141.511    816.87945    32.914457    33.522369    33.090493    2.4968638    34.901963    94.364567 
   78000     295.6029   -10200.092            0    -10144.42    294.44677    32.914457    33.522369    33.090493    2.8463813    36.136992    92.923694 
   79000     304.0292   -10197.517            0   -10140.259    981.10626    32.914457    33.522369    33.090493    2.7874316    37.375694    91.506012 
   80000    286.10763   -10199.489            0   -10145.606   -309.20832    32.914457    33.522369    33.090493    2.6222544    38.562087    89.978205 
   81000    294.99863   -10199.993            0   -10144.436    433.39699    32.914457    33.522369    33.090493     2.859783    39.818626    88.628557 
   82000    299.86587    -10198.39            0   -10141.916    -92.45381    32.914457    33.522369    33.090493    2.5988866    41.053175    87.237999 
   83000    301.06678   -10200.243            0   -10143.543    842.96826    32.914457    33.522369    33.090493    2.5970397    42.326481    85.935585 
   84000    314.24954   -10200.104            0   -10140.921    91.816675    32.914457    33.522369    33.090493    2.2919164    43.561773    84.561091 
   85000    293.39539   -10197.739            0   -10142.483   -47.936213    32.914457    33.522369    33.090493    3.0837661    44.848137    83.289399 
   86000    287.00074   -10200.548            0   -10146.497    164.59729    32.914457    33.522369    33.090493    2.6696918    46.112464    81.977715 
   87000    300.51523   -10199.293            0   -10142.697   -586.95269    32.914457    33.522369    33.090493    3.0680904     47.32543    80.581139 
   88000    303.52079   -10201.508            0   -10144.345   -157.29376    32.914457    33.522369    33.090493    2.0312268     48.60201    79.298018 
   89000    292.10353    -10200.82            0   -10145.807   -210.12127    32.914457    33.522369    33.090493    2.9200797    49.888184    78.030238 
   90000     302.0332   -10203.128            0   -10146.245    146.33691    32.914457    33.522369    33.090493    2.5256273     51.09263    76.638947 
   91000    297.65692   -10199.763            0   -10143.705   -1.7546727    32.914457    33.522369    33.090493    2.2289349    52.348528     75.33081 
   92000    294.94676   -10202.608            0    -10147.06    503.38994    32.914457    33.522369    33.090493    2.7091096    53.531753    73.924803 
   93000    309.82755   -10202.035            0   -10143.685     153.7257    32.914457    33.522369    33.090493    2.4829599    54.821869    72.670851 
   94000    295.23704   -10201.114            0   -10145.511   -25.817925    32.914457    33.522369    33.090493    2.7941013    56.087425    71.383997 
   95000     296.0895   -10202.491            0   -10146.728   -983.05431    32.914457    33.522369    33.090493    2.3842456    57.379542    70.130553 
   96000    304.47079   -10201.519            0   -10144.178   -86.965212    32.914457    33.522369    33.090493    2.4301755    58.669595    68.873004 
   97000    297.44494   -10201.164            0   -10145.145    351.99316    32.914457    33.522369    33.090493    2.3689371    60.010313    67.671205 
   98000    308.78394   -10201.283            0   -10143.129   -486.73175    32.914457    33.522369    33.090493    2.6414912    61.262423    66.367626 
   99000    303.43151    -10201.91            0   -10144.764   -707.69003    32.914457    33.522369    33.090493    2.5533781     62.55016    65.103229 
  100000     298.3408   -10202.492            0   -10146.305    410.05605    32.914457    33.522369    33.090493    2.6830942      63.8743    63.874301 
  101000    295.32784     -10201.3            0    -10145.68    674.76477    32.914457    33.522369    33.090493    2.7469592    65.112916    62.559469 
  102000    307.50634   -10202.709            0   -10144.796    380.61498    32.914457    33.522369    33.090493    3.4404316    66.437261    61.326703 
  103000    287.87008    -10201.47            0   -10147.255   -155.77179    32.914457    33.522369    33.090493    2.3728375    67.768648    60.096727 
  104000    298.72473   -10203.618            0   -10147.359    82.648154    32.914457    33.522369    33.090493    2.5485196     69.06221    58.830772 
  105000    312.04121   -10201.708            0    -10142.94    1320.6823    32.914457    33.522369    33.090493    2.5069267    70.270947    57.494412 
  106000    292.21433   -10202.728            0   -10147.694     186.0523    32.914457    33.522369    33.090493    2.4642521    71.532711    56.204274 
  107000    314.58247   -10201.954            0   -10142.708   -0.6789722    32.914457    33.522369    33.090493    2.9578261    72.784739    54.907786 
  108000    297.55985   -10202.331            0   -10146.291    8.5403167    32.914457    33.522369    33.090493    2.7577103    74.066304    53.634221 
  109000    302.25761   -10203.138            0   -10146.213    104.61521    32.914457    33.522369    33.090493    2.8951315    75.330797    52.348521 
  110000    298.18373   -10201.001            0   -10144.844    142.15741    32.914457    33.522369    33.090493    2.5791688    76.584061    51.056041 
  111000    295.91443   -10203.166            0   -10147.436    928.41065    32.914457    33.522369    33.090493    2.7718212    77.849298    49.772503 
  112000    300.07853    -10203.86            0   -10147.346   -598.37276    32.914457    33.522369    33.090493    2.9487011    79.093969    48.476949 
  113000    300.99515    -10201.95            0   -10145.263    58.355906    32.914457    33.522369    33.090493    2.6492085    80.369096    47.200898 
  114000    299.42768   -10202.282            0    -10145.89    91.869466    32.914457    33.522369    33.090493     2.158649    81.667925    45.938208 
  115000    306.20738    -10203.44            0   -10145.771    -105.8198    32.914457    33.522369    33.090493    2.2959001    82.928896    44.654021 
  116000    298.15426   -10203.881            0   -10147.729   -334.53012    32.914457    33.522369    33.090493    2.3438975    84.198298    43.374881 
  117000    300.72802   -10201.644            0   -10145.007    556.63734    32.914457    33.522369    33.090493    2.3409047    85.496324     42.11013 
  118000    293.04544   -10202.574            0   -10147.384    -223.6087    32.914457    33.522369    33.090493    2.8431791    86.722843    40.810751 
  119000    293.20836   -10201.331            0   -10146.111   -81.490475    32.914457    33.522369    33.090493    2.4182476    87.992125    39.532694 
  120000     304.7772   -10202.712            0   -10145.313   -215.58475    32.914457    33.522369    33.090493     2.360255    89.252588     38.25111 
  121000    299.47095   -10200.701            0   -10144.301    588.41839    32.914457    33.522369    33.090493    2.9306434    90.510569    36.969106 
  122000    300.59076   -10200.409            0   -10143.798   -295.71994    32.914457    33.522369    33.090493    3.3563503    91.724548    35.670658 
  123000    298.00294   -10203.057            0   -10146.934   -860.95582    32.914457    33.522369    33.090493    2.5394432    92.951937    34.379484 
  124000    307.82033   -10201.743            0   -10143.771    521.09122    32.914457    33.522369    33.090493    2.3795553     94.15913    33.082938 
  125000    295.53854   -10201.722            0   -10146.063   -1052.9592    32.914457    33.522369    33.090493    2.1917704    95.425527    31.808509 
  126000     296.4482   -10204.486            0   -10148.656    -7.156909    32.914457    33.522369    33.090493     1.960649    96.733947    30.547563 
  127000    307.86811   -10201.509            0   -10143.527   -629.24265    32.914457    33.522369    33.090493     2.623248    98.022147    29.279343 
  128000    297.12918   -10203.362            0   -10147.403    230.99809    32.914457    33.522369    33.090493    2.6995846    99.379447    28.030101 
  129000    307.32008   -10201.394            0   -10143.516   -306.04671    32.914457    33.522369    33.090493    2.3270104    100.67145    26.760766 
  130000    298.86906   -10203.907            0   -10147.621    28.374704    32.914457    33.522369    33.090493    2.3783281    101.97756    25.494391 
  131000     306.2511   -10203.441            0   -10145.764   -105.75358    32.914457    33.522369    33.090493    2.2842168    103.23053     24.21457 
  132000    295.90362   -10203.816            0   -10148.088   -747.64171    32.914457    33.522369    33.090493     2.427535    104.55926    22.952033 
  133000     308.3482   -10204.849            0   -10146.778    233.82546    32.914457    33.522369    33.090493    1.8857089    105.84062    21.678198 
  134000    307.42096   -10203.217            0    -10145.32   -52.494832    32.914457    33.522369    33.090493    2.4468796    107.16155    20.411725 
  135000    300.03286   -10203.239            0   -10146.733   -846.74854    32.914457    33.522369    33.090493    2.7243998    108.47443    19.142547 
  136000    301.64508   -10204.629            0    -10147.82   -247.37739    32.914457    33.522369    33.090493    2.9231695    109.78143    17.871396 
  137000     304.4339   -10203.495            0   -10146.161   -600.67845    32.914457    33.522369    33.090493    2.3442781    110.99742    16.585822 
  138000    305.89089   -10204.668            0   -10147.059    604.02872    32.914457    33.522369    33.090493    2.9889107    112.23536    15.304823 
  139000    305.20558   -10204.666            0   -10147.186   -330.96774    32.914457    33.522369    33.090493    2.2951822    113.49999    14.028089 
  140000    306.59594   -10203.814            0   -10146.072     809.1206    32.914457    33.522369    33.090493    2.3483544     114.8169    12.757434 
  141000    288.98577   -10204.838            0   -10150.413    602.47523    32.914457    33.522369    33.090493    2.2337187    116.05179     11.47765 
  142000    305.81141    -10205.76            0   -10148.166     1371.407    32.914457    33.522369    33.090493    2.8494483    117.21921    10.192975 
  143000    302.55777   -10205.215            0   -10148.233    359.63566    32.914457    33.522369    33.090493    2.4993935    118.39464    8.9114243 
  144000    299.14506   -10203.595            0   -10147.256   -623.56769    32.914457    33.522369    33.090493    1.8974384     119.6182    7.6352044 
  145000    289.44183   -10205.118            0   -10150.607    694.09199    32.914457    33.522369    33.090493    1.9781261    120.83186    6.3595714 
  146000    301.47346   -10205.822            0   -10149.045    744.19432    32.914457    33.522369    33.090493    2.7750907    122.08847    5.0870196 
  147000    303.08443   -10203.233            0   -10146.152    1134.5707    32.914457    33.522369    33.090493    2.3712637     123.2928    3.8131793 
  148000    294.60195   -10205.451            0   -10149.968     1179.006    32.914457    33.522369    33.090493    2.4910385    124.46737    2.5401504 
  149000    298.93292   -10203.654            0   -10147.355    217.50607    32.914457    33.522369    33.090493    2.1101948    125.65478    1.2692402 
  150000     296.7815   -10202.841            0   -10146.948    227.09458    32.914457    33.522369    33.090493    2.2865115     126.8827            0 
Loop time of 126.883 on 80 procs for 100000 steps with 1458 atoms

Performance: 68.094 ns/day, 0.352 hours/ns, 788.129 timesteps/s
99.2% CPU use with 80 MPI tasks x 1 OpenMP threads

MPI task timing breakdown:
Section |  min time  |  avg time  |  max time  |%varavg| %total
---------------------------------------------------------------
Pair    | 8.3877     | 12.624     | 15.724     |  35.0 |  9.95
Kspace  | 58.532     | 60.831     | 64.574     |  16.3 | 47.94
Neigh   | 0.21852    | 0.28081    | 0.33199    |   3.9 |  0.22
Comm    | 49.961     | 51.701     | 53.962     |  10.5 | 40.75
Output  | 0.0049727  | 0.0050091  | 0.0061362  |   0.2 |  0.00
Modify  | 0.82322    | 0.90912    | 0.99258    |   3.8 |  0.72
Other   |            | 0.5321     |            |       |  0.42

Nlocal:    18.225 ave 25 max 11 min
Histogram: 3 2 7 5 13 24 12 11 1 2
Nghost:    1811.25 ave 1842 max 1785 min
Histogram: 6 6 11 10 11 11 11 6 7 1
Neighs:    4170.5 ave 5750 max 2521 min
Histogram: 3 2 7 6 16 21 12 10 1 2

Total # of neighbors = 333640
Ave neighs/atom = 228.834
Neighbor list builds = 1631
Dangerous builds = 0

# Final Commands
variable final_energy equal etotal
print "final_energy: ${final_energy}"
final_energy: -10146.9480152125
print "END_OF_COMP"
END_OF_COMP
Total wall time: 0:03:18
